*SPEF "ieee 1481-1999"
*DESIGN "counter4s"
*DATE "11:11:11 Fri 11 11, 1111"
*VENDOR "OpenRCX"
*PROGRAM "Parallel Extraction"
*VERSION "1.0"
*DESIGN_FLOW "NAME_SCOPE LOCAL" "PIN_CAP NONE"
*DIVIDER /
*DELIMITER :
*BUS_DELIMITER []
*T_UNIT 1 NS
*C_UNIT 1 PF
*R_UNIT 1 OHM
*L_UNIT 1 HENRY

*NAME_MAP
*3 clk
*4 count[0]
*5 count[1]
*6 count[2]
*7 count[3]
*8 en
*9 rst
*10 c\[1\]
*11 c\[2\]
*12 c\[3\]
*13 clknet_0_clk
*14 clknet_1_0__leaf_clk
*15 clknet_1_1__leaf_clk
*16 d\[0\]
*17 d\[1\]
*18 d\[2\]
*19 d\[3\]
*20 nc\[1\]
*21 nc\[2\]
*22 nc\[3\]
*23 net1
*24 net2
*25 net3
*26 net4
*27 net5
*28 net6
*29 xo\[0\]
*30 xo\[1\]
*31 xo\[2\]
*32 xo\[3\]
*33 FILLER_0_0_109
*34 FILLER_0_0_113
*35 FILLER_0_0_125
*36 FILLER_0_0_133
*37 FILLER_0_0_139
*38 FILLER_0_0_141
*39 FILLER_0_0_153
*40 FILLER_0_0_165
*41 FILLER_0_0_169
*42 FILLER_0_0_181
*43 FILLER_0_0_189
*44 FILLER_0_0_21
*45 FILLER_0_0_27
*46 FILLER_0_0_29
*47 FILLER_0_0_41
*48 FILLER_0_0_53
*49 FILLER_0_0_57
*50 FILLER_0_0_69
*51 FILLER_0_0_81
*52 FILLER_0_0_85
*53 FILLER_0_0_9
*54 FILLER_0_0_97
*55 FILLER_0_10_109
*56 FILLER_0_10_121
*57 FILLER_0_10_133
*58 FILLER_0_10_139
*59 FILLER_0_10_141
*60 FILLER_0_10_15
*61 FILLER_0_10_153
*62 FILLER_0_10_165
*63 FILLER_0_10_177
*64 FILLER_0_10_189
*65 FILLER_0_10_27
*66 FILLER_0_10_29
*67 FILLER_0_10_3
*68 FILLER_0_10_41
*69 FILLER_0_10_53
*70 FILLER_0_10_65
*71 FILLER_0_10_77
*72 FILLER_0_10_83
*73 FILLER_0_10_85
*74 FILLER_0_10_97
*75 FILLER_0_11_105
*76 FILLER_0_11_111
*77 FILLER_0_11_113
*78 FILLER_0_11_125
*79 FILLER_0_11_137
*80 FILLER_0_11_149
*81 FILLER_0_11_15
*82 FILLER_0_11_161
*83 FILLER_0_11_167
*84 FILLER_0_11_169
*85 FILLER_0_11_181
*86 FILLER_0_11_189
*87 FILLER_0_11_27
*88 FILLER_0_11_3
*89 FILLER_0_11_39
*90 FILLER_0_11_51
*91 FILLER_0_11_55
*92 FILLER_0_11_57
*93 FILLER_0_11_69
*94 FILLER_0_11_81
*95 FILLER_0_11_93
*96 FILLER_0_12_109
*97 FILLER_0_12_121
*98 FILLER_0_12_133
*99 FILLER_0_12_139
*100 FILLER_0_12_141
*101 FILLER_0_12_15
*102 FILLER_0_12_153
*103 FILLER_0_12_165
*104 FILLER_0_12_177
*105 FILLER_0_12_189
*106 FILLER_0_12_27
*107 FILLER_0_12_29
*108 FILLER_0_12_3
*109 FILLER_0_12_41
*110 FILLER_0_12_53
*111 FILLER_0_12_65
*112 FILLER_0_12_77
*113 FILLER_0_12_83
*114 FILLER_0_12_85
*115 FILLER_0_12_97
*116 FILLER_0_13_105
*117 FILLER_0_13_111
*118 FILLER_0_13_113
*119 FILLER_0_13_125
*120 FILLER_0_13_137
*121 FILLER_0_13_149
*122 FILLER_0_13_15
*123 FILLER_0_13_161
*124 FILLER_0_13_167
*125 FILLER_0_13_169
*126 FILLER_0_13_181
*127 FILLER_0_13_189
*128 FILLER_0_13_27
*129 FILLER_0_13_3
*130 FILLER_0_13_39
*131 FILLER_0_13_51
*132 FILLER_0_13_55
*133 FILLER_0_13_57
*134 FILLER_0_13_69
*135 FILLER_0_13_81
*136 FILLER_0_13_93
*137 FILLER_0_14_109
*138 FILLER_0_14_121
*139 FILLER_0_14_133
*140 FILLER_0_14_139
*141 FILLER_0_14_141
*142 FILLER_0_14_15
*143 FILLER_0_14_153
*144 FILLER_0_14_165
*145 FILLER_0_14_177
*146 FILLER_0_14_189
*147 FILLER_0_14_27
*148 FILLER_0_14_29
*149 FILLER_0_14_3
*150 FILLER_0_14_41
*151 FILLER_0_14_53
*152 FILLER_0_14_65
*153 FILLER_0_14_77
*154 FILLER_0_14_83
*155 FILLER_0_14_85
*156 FILLER_0_14_97
*157 FILLER_0_15_105
*158 FILLER_0_15_111
*159 FILLER_0_15_113
*160 FILLER_0_15_125
*161 FILLER_0_15_137
*162 FILLER_0_15_149
*163 FILLER_0_15_15
*164 FILLER_0_15_161
*165 FILLER_0_15_167
*166 FILLER_0_15_169
*167 FILLER_0_15_181
*168 FILLER_0_15_189
*169 FILLER_0_15_27
*170 FILLER_0_15_3
*171 FILLER_0_15_39
*172 FILLER_0_15_51
*173 FILLER_0_15_55
*174 FILLER_0_15_57
*175 FILLER_0_15_69
*176 FILLER_0_15_93
*177 FILLER_0_16_109
*178 FILLER_0_16_121
*179 FILLER_0_16_133
*180 FILLER_0_16_139
*181 FILLER_0_16_141
*182 FILLER_0_16_15
*183 FILLER_0_16_153
*184 FILLER_0_16_165
*185 FILLER_0_16_177
*186 FILLER_0_16_189
*187 FILLER_0_16_27
*188 FILLER_0_16_29
*189 FILLER_0_16_3
*190 FILLER_0_16_41
*191 FILLER_0_16_53
*192 FILLER_0_16_65
*193 FILLER_0_16_77
*194 FILLER_0_16_83
*195 FILLER_0_16_85
*196 FILLER_0_16_97
*197 FILLER_0_17_101
*198 FILLER_0_17_109
*199 FILLER_0_17_113
*200 FILLER_0_17_125
*201 FILLER_0_17_137
*202 FILLER_0_17_149
*203 FILLER_0_17_15
*204 FILLER_0_17_161
*205 FILLER_0_17_167
*206 FILLER_0_17_169
*207 FILLER_0_17_181
*208 FILLER_0_17_189
*209 FILLER_0_17_27
*210 FILLER_0_17_3
*211 FILLER_0_17_39
*212 FILLER_0_17_51
*213 FILLER_0_17_55
*214 FILLER_0_17_57
*215 FILLER_0_17_69
*216 FILLER_0_17_81
*217 FILLER_0_17_93
*218 FILLER_0_17_97
*219 FILLER_0_18_111
*220 FILLER_0_18_125
*221 FILLER_0_18_137
*222 FILLER_0_18_141
*223 FILLER_0_18_15
*224 FILLER_0_18_153
*225 FILLER_0_18_165
*226 FILLER_0_18_177
*227 FILLER_0_18_189
*228 FILLER_0_18_27
*229 FILLER_0_18_29
*230 FILLER_0_18_3
*231 FILLER_0_18_41
*232 FILLER_0_18_53
*233 FILLER_0_18_65
*234 FILLER_0_18_77
*235 FILLER_0_18_83
*236 FILLER_0_19_136
*237 FILLER_0_19_148
*238 FILLER_0_19_15
*239 FILLER_0_19_160
*240 FILLER_0_19_169
*241 FILLER_0_19_181
*242 FILLER_0_19_189
*243 FILLER_0_19_27
*244 FILLER_0_19_3
*245 FILLER_0_19_39
*246 FILLER_0_19_51
*247 FILLER_0_19_55
*248 FILLER_0_19_57
*249 FILLER_0_19_69
*250 FILLER_0_19_81
*251 FILLER_0_1_105
*252 FILLER_0_1_111
*253 FILLER_0_1_113
*254 FILLER_0_1_125
*255 FILLER_0_1_137
*256 FILLER_0_1_149
*257 FILLER_0_1_15
*258 FILLER_0_1_161
*259 FILLER_0_1_167
*260 FILLER_0_1_169
*261 FILLER_0_1_181
*262 FILLER_0_1_189
*263 FILLER_0_1_27
*264 FILLER_0_1_3
*265 FILLER_0_1_39
*266 FILLER_0_1_51
*267 FILLER_0_1_55
*268 FILLER_0_1_57
*269 FILLER_0_1_69
*270 FILLER_0_1_81
*271 FILLER_0_1_93
*272 FILLER_0_20_141
*273 FILLER_0_20_153
*274 FILLER_0_20_165
*275 FILLER_0_20_177
*276 FILLER_0_20_189
*277 FILLER_0_20_21
*278 FILLER_0_20_27
*279 FILLER_0_20_29
*280 FILLER_0_20_41
*281 FILLER_0_20_53
*282 FILLER_0_20_65
*283 FILLER_0_20_77
*284 FILLER_0_20_83
*285 FILLER_0_20_85
*286 FILLER_0_20_9
*287 FILLER_0_20_98
*288 FILLER_0_21_110
*289 FILLER_0_21_119
*290 FILLER_0_21_128
*291 FILLER_0_21_140
*292 FILLER_0_21_15
*293 FILLER_0_21_152
*294 FILLER_0_21_164
*295 FILLER_0_21_169
*296 FILLER_0_21_181
*297 FILLER_0_21_189
*298 FILLER_0_21_27
*299 FILLER_0_21_3
*300 FILLER_0_21_39
*301 FILLER_0_21_51
*302 FILLER_0_21_55
*303 FILLER_0_21_57
*304 FILLER_0_21_69
*305 FILLER_0_21_81
*306 FILLER_0_21_89
*307 FILLER_0_21_98
*308 FILLER_0_22_109
*309 FILLER_0_22_121
*310 FILLER_0_22_133
*311 FILLER_0_22_139
*312 FILLER_0_22_141
*313 FILLER_0_22_15
*314 FILLER_0_22_153
*315 FILLER_0_22_165
*316 FILLER_0_22_177
*317 FILLER_0_22_189
*318 FILLER_0_22_27
*319 FILLER_0_22_29
*320 FILLER_0_22_3
*321 FILLER_0_22_41
*322 FILLER_0_22_53
*323 FILLER_0_22_65
*324 FILLER_0_22_77
*325 FILLER_0_22_83
*326 FILLER_0_22_85
*327 FILLER_0_23_105
*328 FILLER_0_23_111
*329 FILLER_0_23_113
*330 FILLER_0_23_125
*331 FILLER_0_23_137
*332 FILLER_0_23_149
*333 FILLER_0_23_15
*334 FILLER_0_23_161
*335 FILLER_0_23_167
*336 FILLER_0_23_169
*337 FILLER_0_23_181
*338 FILLER_0_23_189
*339 FILLER_0_23_27
*340 FILLER_0_23_3
*341 FILLER_0_23_39
*342 FILLER_0_23_51
*343 FILLER_0_23_55
*344 FILLER_0_23_57
*345 FILLER_0_23_69
*346 FILLER_0_23_81
*347 FILLER_0_23_93
*348 FILLER_0_24_109
*349 FILLER_0_24_121
*350 FILLER_0_24_133
*351 FILLER_0_24_139
*352 FILLER_0_24_141
*353 FILLER_0_24_15
*354 FILLER_0_24_153
*355 FILLER_0_24_165
*356 FILLER_0_24_177
*357 FILLER_0_24_189
*358 FILLER_0_24_27
*359 FILLER_0_24_29
*360 FILLER_0_24_3
*361 FILLER_0_24_41
*362 FILLER_0_24_53
*363 FILLER_0_24_65
*364 FILLER_0_24_77
*365 FILLER_0_24_83
*366 FILLER_0_24_85
*367 FILLER_0_24_97
*368 FILLER_0_25_105
*369 FILLER_0_25_111
*370 FILLER_0_25_113
*371 FILLER_0_25_125
*372 FILLER_0_25_137
*373 FILLER_0_25_149
*374 FILLER_0_25_15
*375 FILLER_0_25_161
*376 FILLER_0_25_167
*377 FILLER_0_25_169
*378 FILLER_0_25_181
*379 FILLER_0_25_189
*380 FILLER_0_25_27
*381 FILLER_0_25_3
*382 FILLER_0_25_39
*383 FILLER_0_25_51
*384 FILLER_0_25_55
*385 FILLER_0_25_57
*386 FILLER_0_25_69
*387 FILLER_0_25_81
*388 FILLER_0_25_93
*389 FILLER_0_26_109
*390 FILLER_0_26_121
*391 FILLER_0_26_133
*392 FILLER_0_26_139
*393 FILLER_0_26_141
*394 FILLER_0_26_15
*395 FILLER_0_26_153
*396 FILLER_0_26_165
*397 FILLER_0_26_177
*398 FILLER_0_26_189
*399 FILLER_0_26_27
*400 FILLER_0_26_29
*401 FILLER_0_26_3
*402 FILLER_0_26_41
*403 FILLER_0_26_53
*404 FILLER_0_26_65
*405 FILLER_0_26_77
*406 FILLER_0_26_83
*407 FILLER_0_26_85
*408 FILLER_0_26_97
*409 FILLER_0_27_105
*410 FILLER_0_27_111
*411 FILLER_0_27_113
*412 FILLER_0_27_125
*413 FILLER_0_27_137
*414 FILLER_0_27_149
*415 FILLER_0_27_15
*416 FILLER_0_27_161
*417 FILLER_0_27_167
*418 FILLER_0_27_169
*419 FILLER_0_27_181
*420 FILLER_0_27_189
*421 FILLER_0_27_27
*422 FILLER_0_27_3
*423 FILLER_0_27_39
*424 FILLER_0_27_51
*425 FILLER_0_27_55
*426 FILLER_0_27_57
*427 FILLER_0_27_69
*428 FILLER_0_27_81
*429 FILLER_0_27_93
*430 FILLER_0_28_109
*431 FILLER_0_28_121
*432 FILLER_0_28_133
*433 FILLER_0_28_139
*434 FILLER_0_28_141
*435 FILLER_0_28_15
*436 FILLER_0_28_153
*437 FILLER_0_28_165
*438 FILLER_0_28_177
*439 FILLER_0_28_189
*440 FILLER_0_28_27
*441 FILLER_0_28_29
*442 FILLER_0_28_3
*443 FILLER_0_28_41
*444 FILLER_0_28_53
*445 FILLER_0_28_65
*446 FILLER_0_28_77
*447 FILLER_0_28_83
*448 FILLER_0_28_85
*449 FILLER_0_28_97
*450 FILLER_0_29_105
*451 FILLER_0_29_111
*452 FILLER_0_29_113
*453 FILLER_0_29_125
*454 FILLER_0_29_137
*455 FILLER_0_29_149
*456 FILLER_0_29_15
*457 FILLER_0_29_161
*458 FILLER_0_29_167
*459 FILLER_0_29_169
*460 FILLER_0_29_181
*461 FILLER_0_29_189
*462 FILLER_0_29_27
*463 FILLER_0_29_3
*464 FILLER_0_29_39
*465 FILLER_0_29_51
*466 FILLER_0_29_55
*467 FILLER_0_29_57
*468 FILLER_0_29_69
*469 FILLER_0_29_81
*470 FILLER_0_29_93
*471 FILLER_0_2_109
*472 FILLER_0_2_121
*473 FILLER_0_2_133
*474 FILLER_0_2_139
*475 FILLER_0_2_141
*476 FILLER_0_2_15
*477 FILLER_0_2_153
*478 FILLER_0_2_165
*479 FILLER_0_2_177
*480 FILLER_0_2_189
*481 FILLER_0_2_27
*482 FILLER_0_2_29
*483 FILLER_0_2_3
*484 FILLER_0_2_41
*485 FILLER_0_2_53
*486 FILLER_0_2_65
*487 FILLER_0_2_77
*488 FILLER_0_2_83
*489 FILLER_0_2_85
*490 FILLER_0_2_97
*491 FILLER_0_30_109
*492 FILLER_0_30_121
*493 FILLER_0_30_133
*494 FILLER_0_30_139
*495 FILLER_0_30_141
*496 FILLER_0_30_15
*497 FILLER_0_30_153
*498 FILLER_0_30_165
*499 FILLER_0_30_177
*500 FILLER_0_30_189
*501 FILLER_0_30_27
*502 FILLER_0_30_29
*503 FILLER_0_30_3
*504 FILLER_0_30_41
*505 FILLER_0_30_53
*506 FILLER_0_30_65
*507 FILLER_0_30_77
*508 FILLER_0_30_83
*509 FILLER_0_30_85
*510 FILLER_0_30_97
*511 FILLER_0_31_105
*512 FILLER_0_31_111
*513 FILLER_0_31_113
*514 FILLER_0_31_125
*515 FILLER_0_31_137
*516 FILLER_0_31_149
*517 FILLER_0_31_15
*518 FILLER_0_31_161
*519 FILLER_0_31_167
*520 FILLER_0_31_169
*521 FILLER_0_31_181
*522 FILLER_0_31_189
*523 FILLER_0_31_27
*524 FILLER_0_31_3
*525 FILLER_0_31_39
*526 FILLER_0_31_51
*527 FILLER_0_31_55
*528 FILLER_0_31_57
*529 FILLER_0_31_69
*530 FILLER_0_31_81
*531 FILLER_0_31_93
*532 FILLER_0_32_109
*533 FILLER_0_32_121
*534 FILLER_0_32_133
*535 FILLER_0_32_139
*536 FILLER_0_32_141
*537 FILLER_0_32_15
*538 FILLER_0_32_153
*539 FILLER_0_32_165
*540 FILLER_0_32_177
*541 FILLER_0_32_189
*542 FILLER_0_32_27
*543 FILLER_0_32_29
*544 FILLER_0_32_3
*545 FILLER_0_32_41
*546 FILLER_0_32_53
*547 FILLER_0_32_65
*548 FILLER_0_32_77
*549 FILLER_0_32_83
*550 FILLER_0_32_85
*551 FILLER_0_32_97
*552 FILLER_0_33_105
*553 FILLER_0_33_111
*554 FILLER_0_33_113
*555 FILLER_0_33_125
*556 FILLER_0_33_137
*557 FILLER_0_33_149
*558 FILLER_0_33_15
*559 FILLER_0_33_161
*560 FILLER_0_33_167
*561 FILLER_0_33_169
*562 FILLER_0_33_181
*563 FILLER_0_33_189
*564 FILLER_0_33_27
*565 FILLER_0_33_3
*566 FILLER_0_33_39
*567 FILLER_0_33_51
*568 FILLER_0_33_55
*569 FILLER_0_33_57
*570 FILLER_0_33_69
*571 FILLER_0_33_81
*572 FILLER_0_33_93
*573 FILLER_0_34_109
*574 FILLER_0_34_121
*575 FILLER_0_34_133
*576 FILLER_0_34_139
*577 FILLER_0_34_141
*578 FILLER_0_34_15
*579 FILLER_0_34_153
*580 FILLER_0_34_165
*581 FILLER_0_34_177
*582 FILLER_0_34_189
*583 FILLER_0_34_27
*584 FILLER_0_34_29
*585 FILLER_0_34_3
*586 FILLER_0_34_41
*587 FILLER_0_34_53
*588 FILLER_0_34_65
*589 FILLER_0_34_77
*590 FILLER_0_34_83
*591 FILLER_0_34_85
*592 FILLER_0_34_97
*593 FILLER_0_35_105
*594 FILLER_0_35_111
*595 FILLER_0_35_113
*596 FILLER_0_35_125
*597 FILLER_0_35_137
*598 FILLER_0_35_149
*599 FILLER_0_35_15
*600 FILLER_0_35_161
*601 FILLER_0_35_167
*602 FILLER_0_35_169
*603 FILLER_0_35_181
*604 FILLER_0_35_189
*605 FILLER_0_35_27
*606 FILLER_0_35_3
*607 FILLER_0_35_39
*608 FILLER_0_35_51
*609 FILLER_0_35_55
*610 FILLER_0_35_57
*611 FILLER_0_35_69
*612 FILLER_0_35_81
*613 FILLER_0_35_93
*614 FILLER_0_36_109
*615 FILLER_0_36_121
*616 FILLER_0_36_133
*617 FILLER_0_36_139
*618 FILLER_0_36_141
*619 FILLER_0_36_15
*620 FILLER_0_36_153
*621 FILLER_0_36_165
*622 FILLER_0_36_177
*623 FILLER_0_36_189
*624 FILLER_0_36_27
*625 FILLER_0_36_29
*626 FILLER_0_36_3
*627 FILLER_0_36_41
*628 FILLER_0_36_53
*629 FILLER_0_36_65
*630 FILLER_0_36_77
*631 FILLER_0_36_83
*632 FILLER_0_36_85
*633 FILLER_0_36_97
*634 FILLER_0_37_105
*635 FILLER_0_37_111
*636 FILLER_0_37_113
*637 FILLER_0_37_125
*638 FILLER_0_37_137
*639 FILLER_0_37_149
*640 FILLER_0_37_15
*641 FILLER_0_37_161
*642 FILLER_0_37_167
*643 FILLER_0_37_169
*644 FILLER_0_37_181
*645 FILLER_0_37_189
*646 FILLER_0_37_27
*647 FILLER_0_37_3
*648 FILLER_0_37_39
*649 FILLER_0_37_51
*650 FILLER_0_37_55
*651 FILLER_0_37_57
*652 FILLER_0_37_69
*653 FILLER_0_37_81
*654 FILLER_0_37_93
*655 FILLER_0_38_109
*656 FILLER_0_38_113
*657 FILLER_0_38_125
*658 FILLER_0_38_132
*659 FILLER_0_38_141
*660 FILLER_0_38_153
*661 FILLER_0_38_165
*662 FILLER_0_38_169
*663 FILLER_0_38_181
*664 FILLER_0_38_189
*665 FILLER_0_38_21
*666 FILLER_0_38_27
*667 FILLER_0_38_29
*668 FILLER_0_38_41
*669 FILLER_0_38_53
*670 FILLER_0_38_57
*671 FILLER_0_38_69
*672 FILLER_0_38_81
*673 FILLER_0_38_85
*674 FILLER_0_38_9
*675 FILLER_0_38_97
*676 FILLER_0_3_105
*677 FILLER_0_3_111
*678 FILLER_0_3_113
*679 FILLER_0_3_125
*680 FILLER_0_3_137
*681 FILLER_0_3_149
*682 FILLER_0_3_15
*683 FILLER_0_3_161
*684 FILLER_0_3_167
*685 FILLER_0_3_169
*686 FILLER_0_3_181
*687 FILLER_0_3_189
*688 FILLER_0_3_27
*689 FILLER_0_3_3
*690 FILLER_0_3_39
*691 FILLER_0_3_51
*692 FILLER_0_3_55
*693 FILLER_0_3_57
*694 FILLER_0_3_69
*695 FILLER_0_3_81
*696 FILLER_0_3_93
*697 FILLER_0_4_109
*698 FILLER_0_4_121
*699 FILLER_0_4_133
*700 FILLER_0_4_139
*701 FILLER_0_4_141
*702 FILLER_0_4_15
*703 FILLER_0_4_153
*704 FILLER_0_4_165
*705 FILLER_0_4_177
*706 FILLER_0_4_189
*707 FILLER_0_4_27
*708 FILLER_0_4_29
*709 FILLER_0_4_3
*710 FILLER_0_4_41
*711 FILLER_0_4_53
*712 FILLER_0_4_65
*713 FILLER_0_4_77
*714 FILLER_0_4_83
*715 FILLER_0_4_85
*716 FILLER_0_4_97
*717 FILLER_0_5_105
*718 FILLER_0_5_111
*719 FILLER_0_5_113
*720 FILLER_0_5_125
*721 FILLER_0_5_137
*722 FILLER_0_5_149
*723 FILLER_0_5_15
*724 FILLER_0_5_161
*725 FILLER_0_5_167
*726 FILLER_0_5_169
*727 FILLER_0_5_181
*728 FILLER_0_5_189
*729 FILLER_0_5_27
*730 FILLER_0_5_3
*731 FILLER_0_5_39
*732 FILLER_0_5_51
*733 FILLER_0_5_55
*734 FILLER_0_5_57
*735 FILLER_0_5_69
*736 FILLER_0_5_81
*737 FILLER_0_5_93
*738 FILLER_0_6_109
*739 FILLER_0_6_121
*740 FILLER_0_6_133
*741 FILLER_0_6_139
*742 FILLER_0_6_141
*743 FILLER_0_6_15
*744 FILLER_0_6_153
*745 FILLER_0_6_165
*746 FILLER_0_6_177
*747 FILLER_0_6_189
*748 FILLER_0_6_27
*749 FILLER_0_6_29
*750 FILLER_0_6_3
*751 FILLER_0_6_41
*752 FILLER_0_6_53
*753 FILLER_0_6_65
*754 FILLER_0_6_77
*755 FILLER_0_6_83
*756 FILLER_0_6_85
*757 FILLER_0_6_97
*758 FILLER_0_7_105
*759 FILLER_0_7_111
*760 FILLER_0_7_113
*761 FILLER_0_7_125
*762 FILLER_0_7_137
*763 FILLER_0_7_149
*764 FILLER_0_7_15
*765 FILLER_0_7_161
*766 FILLER_0_7_167
*767 FILLER_0_7_169
*768 FILLER_0_7_181
*769 FILLER_0_7_185
*770 FILLER_0_7_27
*771 FILLER_0_7_3
*772 FILLER_0_7_39
*773 FILLER_0_7_51
*774 FILLER_0_7_55
*775 FILLER_0_7_57
*776 FILLER_0_7_69
*777 FILLER_0_7_81
*778 FILLER_0_7_93
*779 FILLER_0_8_109
*780 FILLER_0_8_121
*781 FILLER_0_8_133
*782 FILLER_0_8_139
*783 FILLER_0_8_141
*784 FILLER_0_8_15
*785 FILLER_0_8_153
*786 FILLER_0_8_165
*787 FILLER_0_8_177
*788 FILLER_0_8_189
*789 FILLER_0_8_27
*790 FILLER_0_8_29
*791 FILLER_0_8_3
*792 FILLER_0_8_41
*793 FILLER_0_8_53
*794 FILLER_0_8_65
*795 FILLER_0_8_77
*796 FILLER_0_8_83
*797 FILLER_0_8_85
*798 FILLER_0_8_97
*799 FILLER_0_9_105
*800 FILLER_0_9_111
*801 FILLER_0_9_113
*802 FILLER_0_9_125
*803 FILLER_0_9_137
*804 FILLER_0_9_149
*805 FILLER_0_9_15
*806 FILLER_0_9_161
*807 FILLER_0_9_167
*808 FILLER_0_9_169
*809 FILLER_0_9_181
*810 FILLER_0_9_189
*811 FILLER_0_9_27
*812 FILLER_0_9_3
*813 FILLER_0_9_39
*814 FILLER_0_9_51
*815 FILLER_0_9_55
*816 FILLER_0_9_57
*817 FILLER_0_9_69
*818 FILLER_0_9_81
*819 FILLER_0_9_93
*820 PHY_0
*821 PHY_1
*822 PHY_10
*823 PHY_11
*824 PHY_12
*825 PHY_13
*826 PHY_14
*827 PHY_15
*828 PHY_16
*829 PHY_17
*830 PHY_18
*831 PHY_19
*832 PHY_2
*833 PHY_20
*834 PHY_21
*835 PHY_22
*836 PHY_23
*837 PHY_24
*838 PHY_25
*839 PHY_26
*840 PHY_27
*841 PHY_28
*842 PHY_29
*843 PHY_3
*844 PHY_30
*845 PHY_31
*846 PHY_32
*847 PHY_33
*848 PHY_34
*849 PHY_35
*850 PHY_36
*851 PHY_37
*852 PHY_38
*853 PHY_39
*854 PHY_4
*855 PHY_40
*856 PHY_41
*857 PHY_42
*858 PHY_43
*859 PHY_44
*860 PHY_45
*861 PHY_46
*862 PHY_47
*863 PHY_48
*864 PHY_49
*865 PHY_5
*866 PHY_50
*867 PHY_51
*868 PHY_52
*869 PHY_53
*870 PHY_54
*871 PHY_55
*872 PHY_56
*873 PHY_57
*874 PHY_58
*875 PHY_59
*876 PHY_6
*877 PHY_60
*878 PHY_61
*879 PHY_62
*880 PHY_63
*881 PHY_64
*882 PHY_65
*883 PHY_66
*884 PHY_67
*885 PHY_68
*886 PHY_69
*887 PHY_7
*888 PHY_70
*889 PHY_71
*890 PHY_72
*891 PHY_73
*892 PHY_74
*893 PHY_75
*894 PHY_76
*895 PHY_77
*896 PHY_8
*897 PHY_9
*898 TAP_100
*899 TAP_101
*900 TAP_102
*901 TAP_103
*902 TAP_104
*903 TAP_105
*904 TAP_106
*905 TAP_107
*906 TAP_108
*907 TAP_109
*908 TAP_110
*909 TAP_111
*910 TAP_112
*911 TAP_113
*912 TAP_114
*913 TAP_115
*914 TAP_116
*915 TAP_117
*916 TAP_118
*917 TAP_119
*918 TAP_120
*919 TAP_121
*920 TAP_122
*921 TAP_123
*922 TAP_124
*923 TAP_125
*924 TAP_126
*925 TAP_127
*926 TAP_128
*927 TAP_129
*928 TAP_130
*929 TAP_131
*930 TAP_132
*931 TAP_133
*932 TAP_134
*933 TAP_135
*934 TAP_136
*935 TAP_137
*936 TAP_138
*937 TAP_139
*938 TAP_140
*939 TAP_141
*940 TAP_142
*941 TAP_143
*942 TAP_144
*943 TAP_145
*944 TAP_146
*945 TAP_147
*946 TAP_148
*947 TAP_149
*948 TAP_150
*949 TAP_151
*950 TAP_152
*951 TAP_153
*952 TAP_154
*953 TAP_155
*954 TAP_156
*955 TAP_157
*956 TAP_158
*957 TAP_159
*958 TAP_160
*959 TAP_161
*960 TAP_162
*961 TAP_163
*962 TAP_164
*963 TAP_165
*964 TAP_166
*965 TAP_167
*966 TAP_168
*967 TAP_169
*968 TAP_170
*969 TAP_171
*970 TAP_172
*971 TAP_173
*972 TAP_174
*973 TAP_175
*974 TAP_176
*975 TAP_177
*976 TAP_178
*977 TAP_179
*978 TAP_180
*979 TAP_181
*980 TAP_182
*981 TAP_183
*982 TAP_184
*983 TAP_185
*984 TAP_186
*985 TAP_187
*986 TAP_188
*987 TAP_189
*988 TAP_190
*989 TAP_191
*990 TAP_192
*991 TAP_193
*992 TAP_194
*993 TAP_195
*994 TAP_196
*995 TAP_197
*996 TAP_198
*997 TAP_199
*998 TAP_200
*999 TAP_78
*1000 TAP_79
*1001 TAP_80
*1002 TAP_81
*1003 TAP_82
*1004 TAP_83
*1005 TAP_84
*1006 TAP_85
*1007 TAP_86
*1008 TAP_87
*1009 TAP_88
*1010 TAP_89
*1011 TAP_90
*1012 TAP_91
*1013 TAP_92
*1014 TAP_93
*1015 TAP_94
*1016 TAP_95
*1017 TAP_96
*1018 TAP_97
*1019 TAP_98
*1020 TAP_99
*1021 clkbuf_0_clk
*1022 clkbuf_1_0__f_clk
*1023 clkbuf_1_1__f_clk
*1024 f0
*1025 f1
*1026 f2
*1027 f3
*1028 i1
*1029 i2
*1030 i3
*1031 input1
*1032 input2
*1033 n1
*1034 n2
*1035 n3
*1036 output3
*1037 output4
*1038 output5
*1039 output6
*1040 r0
*1041 r1
*1042 r2
*1043 r3
*1044 x0
*1045 x1
*1046 x2
*1047 x3

*PORTS
clk I
count[0] O
count[1] O
count[2] O
count[3] O
en I
rst I

*D_NET *3 0.00846508
*CONN
*P clk I
*I *1021:A I *D sky130_fd_sc_hd__clkbuf_16
*CAP
1 clk 0.00422018
2 *1021:A 0
3 *3:17 0.00422018
4 *3:17 *1040:A 2.47132e-05
5 *3:17 *20:8 0
*RES
1 clk *3:17 37.6055 
2 *3:17 *1021:A 38 
*END

*D_NET *4 0.000839267
*CONN
*P count[0] O
*I *1036:X O *D sky130_fd_sc_hd__clkbuf_4
*CAP
1 count[0] 0.000419634
2 *1036:X 0.000419634
*RES
1 *1036:X count[0] 47.2386 
*END

*D_NET *5 0.00061592
*CONN
*P count[1] O
*I *1037:X O *D sky130_fd_sc_hd__clkbuf_4
*CAP
1 count[1] 8.56082e-05
2 *1037:X 0.000222352
3 *5:12 0.00030796
*RES
1 *1037:X *5:12 49.9046 
2 *5:12 count[1] 0.328533 
*END

*D_NET *6 0.00149177
*CONN
*P count[2] O
*I *1038:X O *D sky130_fd_sc_hd__clkbuf_4
*CAP
1 count[2] 0.000372805
2 *1038:X 0.000373081
3 *6:8 0.000745886
*RES
1 *1038:X *6:8 45.2914 
2 *6:8 count[2] 8.34786 
*END

*D_NET *7 0.00177472
*CONN
*P count[3] O
*I *1039:X O *D sky130_fd_sc_hd__clkbuf_4
*CAP
1 count[3] 0.000449901
2 *1039:X 0.000437461
3 *7:8 0.000887362
*RES
1 *1039:X *7:8 45.7679 
2 *7:8 count[3] 10.1086 
*END

*D_NET *8 0.00122842
*CONN
*P en I
*I *1031:A I *D sky130_fd_sc_hd__buf_1
*CAP
1 en 0.000598737
2 *1031:A 0
3 *8:9 0.000598737
4 *8:9 *23:8 3.09417e-05
*RES
1 en *8:9 27.7393 
2 *8:9 *1031:A 23 
*END

*D_NET *9 0.000629057
*CONN
*P rst I
*I *1032:A I *D sky130_fd_sc_hd__clkbuf_2
*CAP
1 rst 0.000314528
2 *1032:A 0.000314528
*RES
1 rst *1032:A 49.7006 
*END

*D_NET *10 0.000818644
*CONN
*I *1045:B I *D Xnor
*I *1034:A I *D Nand_gate
*I *1028:Y O *D inverter
*CAP
1 *1045:B 7.89903e-05
2 *1034:A 0
3 *1028:Y 4.7319e-05
4 *10:6 0.000126309
5 *1045:B *19:14 0.000143655
6 *1045:B *26:20 9.84794e-05
7 *1045:B *32:24 2.25927e-05
8 *10:6 *19:14 6.51746e-05
9 *10:6 *24:68 5.3304e-05
10 *10:6 *32:24 0.00018282
*RES
1 *1028:Y *10:6 25.0507 
2 *10:6 *1034:A 23 
3 *10:6 *1045:B 25.5479 
*END

*D_NET *11 0.00299529
*CONN
*I *1046:B I *D Xnor
*I *1035:A I *D Nand_gate
*I *1029:Y O *D inverter
*CAP
1 *1046:B 0
2 *1035:A 0
3 *1029:Y 0.000179186
4 *11:28 0.000354845
5 *11:14 0.000661769
6 *11:10 0.00048611
7 *11:10 *1029:A 2.93845e-05
8 *11:10 *21:8 0.000324742
9 *11:10 *24:68 0.000108046
10 *11:14 *1023:A 0.000186186
11 *11:14 *13:18 0.000228001
12 *11:28 *1025:CLK 5.67058e-05
13 *11:28 *1042:A 5.23699e-05
14 *11:28 *13:18 3.3266e-05
15 *11:28 *24:41 0
16 *11:28 *26:34 2.07242e-05
17 *11:28 *31:10 0.000273953
*RES
1 *1029:Y *11:10 42.9921 
2 *11:10 *11:14 21.3386 
3 *11:14 *11:28 36.6493 
4 *11:28 *1035:A 23 
5 *11:14 *1046:B 23 
*END

*D_NET *12 0.000483215
*CONN
*I *1047:B I *D Xnor
*I *1030:Y O *D inverter
*CAP
1 *1047:B 0
2 *1030:Y 0.000191517
3 *12:10 0.000191517
4 *12:10 *26:28 0
5 *12:10 *26:34 0.00010018
*RES
1 *1030:Y *12:10 41.3557 
2 *12:10 *1047:B 38 
*END

*D_NET *13 0.00381551
*CONN
*I *1023:A I *D sky130_fd_sc_hd__clkbuf_16
*I *1022:A I *D sky130_fd_sc_hd__clkbuf_16
*I *1021:X O *D sky130_fd_sc_hd__clkbuf_16
*CAP
1 *1023:A 0.000524252
2 *1022:A 0
3 *1021:X 0
4 *13:18 0.000864727
5 *13:4 0.00138898
6 *1023:A *15:8 0.000109885
7 *13:18 *1041:A 0
8 *13:18 *1046:A 0
9 *13:18 *17:14 0.000398421
10 *13:18 *24:41 0
11 *13:18 *26:34 8.1796e-05
12 *13:18 *27:14 0
13 *13:18 *31:10 0
14 *11:14 *1023:A 0.000186186
15 *11:14 *13:18 0.000228001
16 *11:28 *13:18 3.3266e-05
*RES
1 *1021:X *13:4 23 
2 *13:4 *13:18 48.3943 
3 *13:18 *1022:A 23 
4 *13:4 *1023:A 33.1914 
*END

*D_NET *14 0.00285766
*CONN
*I *1026:CLK I *D D_FF_pe
*I *1025:CLK I *D D_FF_pe
*I *1022:X O *D sky130_fd_sc_hd__clkbuf_16
*CAP
1 *1026:CLK 0.000166994
2 *1025:CLK 2.28088e-05
3 *1022:X 0.000438957
4 *14:18 0.000370129
5 *14:10 0.000953271
6 *1025:CLK *1042:A 2.18506e-05
7 *1025:CLK *24:41 9.84851e-05
8 *1026:CLK *27:14 4.3407e-05
9 *14:10 *27:14 0.00013216
10 *14:18 *17:14 0
11 *14:18 *18:10 0.000194299
12 *14:18 *27:14 0.000223034
13 *14:18 *27:25 0.000135557
14 *11:28 *1025:CLK 5.67058e-05
*RES
1 *1022:X *14:10 46.3064 
2 *14:10 *14:18 36.7736 
3 *14:18 *1025:CLK 39.0979 
4 *14:10 *1026:CLK 41.0036 
*END

*D_NET *15 0.00330932
*CONN
*I *1027:CLK I *D D_FF_pe
*I *1024:CLK I *D D_FF_pe
*I *1023:X O *D sky130_fd_sc_hd__clkbuf_16
*CAP
1 *1027:CLK 0.000402442
2 *1024:CLK 5.08603e-05
3 *1023:X 0.000803882
4 *15:8 0.00125718
5 *1024:CLK *23:22 7.03663e-05
6 *1024:CLK *24:68 0.00014411
7 *1027:CLK *19:14 0
8 *1027:CLK *23:10 0
9 *1027:CLK *23:22 0.000155068
10 *1027:CLK *24:68 0.000315528
11 *1023:A *15:8 0.000109885
*RES
1 *1023:X *15:8 48.15 
2 *15:8 *1024:CLK 39.9057 
3 *15:8 *1027:CLK 47.0107 
*END

*D_NET *16 0.000854017
*CONN
*I *1024:D I *D D_FF_pe
*I *1040:Y O *D Nor_gate
*CAP
1 *1024:D 0
2 *1040:Y 0.000157105
3 *16:10 0.000157105
4 *16:10 *1040:A 0.00019747
5 *16:10 *23:22 0.000342337
*RES
1 *1040:Y *16:10 42.1843 
2 *16:10 *1024:D 38 
*END

*D_NET *17 0.00141194
*CONN
*I *1025:D I *D D_FF_pe
*I *1041:Y O *D Nor_gate
*CAP
1 *1025:D 0
2 *1041:Y 0.000495245
3 *17:14 0.000495245
4 *17:14 *1041:B 2.30292e-05
5 *17:14 *1046:A 0
6 *17:14 *18:10 0
7 *17:14 *27:25 0
8 *13:18 *17:14 0.000398421
9 *14:18 *17:14 0
*RES
1 *1041:Y *17:14 47.1971 
2 *17:14 *1025:D 38 
*END

*D_NET *18 0.000795289
*CONN
*I *1026:D I *D D_FF_pe
*I *1042:Y O *D Nor_gate
*CAP
1 *1026:D 0
2 *1042:Y 0.000232126
3 *18:10 0.000232126
4 *18:10 *24:41 0.000136738
5 *14:18 *18:10 0.000194299
6 *17:14 *18:10 0
*RES
1 *1042:Y *18:10 42.1843 
2 *18:10 *1026:D 38 
*END

*D_NET *19 0.00138201
*CONN
*I *1027:D I *D D_FF_pe
*I *1043:Y O *D Nor_gate
*CAP
1 *1027:D 0
2 *1043:Y 0.00047559
3 *19:14 0.00047559
4 *19:14 *24:68 0.000221997
5 *1027:CLK *19:14 0
6 *1045:B *19:14 0.000143655
7 *10:6 *19:14 6.51746e-05
*RES
1 *1043:Y *19:14 45.7057 
2 *19:14 *1027:D 38 
*END

*D_NET *20 0.00155039
*CONN
*I *1028:A I *D inverter
*I *1033:Y O *D Nand_gate
*CAP
1 *1028:A 0.000219543
2 *1033:Y 0.000425572
3 *20:8 0.000645116
4 *1028:A *1044:B 9.88259e-05
5 *1028:A *24:68 5.43096e-05
6 *1028:A *29:12 4.65096e-05
7 *1028:A *32:24 5.50106e-05
8 *20:8 *1040:A 0
9 *20:8 *1044:A 0
10 *20:8 *29:12 5.50381e-06
11 *3:17 *20:8 0
*RES
1 *1033:Y *20:8 45.54 
2 *20:8 *1028:A 41.9564 
*END

*D_NET *21 0.00146073
*CONN
*I *1029:A I *D inverter
*I *1034:Y O *D Nand_gate
*CAP
1 *1029:A 5.19532e-05
2 *1034:Y 0.000327111
3 *21:8 0.000379065
4 *21:8 *1041:A 0
5 *21:8 *24:41 0
6 *21:8 *24:68 0
7 *21:8 *26:10 0.000348475
8 *11:10 *1029:A 2.93845e-05
9 *11:10 *21:8 0.000324742
*RES
1 *1034:Y *21:8 46.2443 
2 *21:8 *1029:A 39.0979 
*END

*D_NET *22 0.000351683
*CONN
*I *1030:A I *D inverter
*I *1035:Y O *D Nand_gate
*CAP
1 *1030:A 0
2 *1035:Y 4.56294e-05
3 *22:8 4.56294e-05
4 *22:8 *1046:A 0.00014411
5 *22:8 *31:10 0.000116314
*RES
1 *1035:Y *22:8 39.9057 
2 *22:8 *1030:A 38 
*END

*D_NET *23 0.00835188
*CONN
*I *1044:B I *D Xnor
*I *1033:A I *D Nand_gate
*I *1031:X O *D sky130_fd_sc_hd__buf_1
*CAP
1 *1044:B 0.000107956
2 *1033:A 0
3 *1031:X 0.000463936
4 *23:22 0.0005391
5 *23:10 0.0030391
6 *23:8 0.00285598
7 *1044:B *29:12 0.000128422
8 *23:10 *29:12 3.35885e-06
9 *23:22 *1040:A 0.000404927
10 *23:22 *24:68 0.000103909
11 *23:22 *29:12 7.65863e-06
12 *1024:CLK *23:22 7.03663e-05
13 *1027:CLK *23:10 0
14 *1027:CLK *23:22 0.000155068
15 *1028:A *1044:B 9.88259e-05
16 *8:9 *23:8 3.09417e-05
17 *16:10 *23:22 0.000342337
*RES
1 *1031:X *23:8 43.8621 
2 *23:8 *23:10 46.8039 
3 *23:10 *23:22 28.9925 
4 *23:22 *1033:A 23 
5 *23:10 *1044:B 40.5168 
*END

*D_NET *24 0.014231
*CONN
*I *1040:B I *D Nor_gate
*I *1043:B I *D Nor_gate
*I *1042:B I *D Nor_gate
*I *1041:B I *D Nor_gate
*I *1032:X O *D sky130_fd_sc_hd__clkbuf_2
*CAP
1 *1040:B 3.61673e-05
2 *1043:B 0
3 *1042:B 0
4 *1041:B 0.000152515
5 *1032:X 0
6 *24:68 0.000600191
7 *24:52 0.000784628
8 *24:41 0.000931626
9 *24:16 0.00147887
10 *24:10 0.00197925
11 *24:8 0.00400272
12 *24:4 0.00256647
13 *1040:B *1040:A 0.000101764
14 *24:41 *1041:A 0.000117249
15 *24:41 *1042:A 9.07021e-05
16 *24:52 *1040:A 0
17 *24:68 *1040:A 1.32314e-05
18 *24:68 *26:10 0
19 *24:68 *32:24 0.000116188
20 *1024:CLK *24:68 0.00014411
21 *1025:CLK *24:41 9.84851e-05
22 *1027:CLK *24:68 0.000315528
23 *1028:A *24:68 5.43096e-05
24 *10:6 *24:68 5.3304e-05
25 *11:10 *24:68 0.000108046
26 *11:28 *24:41 0
27 *13:18 *24:41 0
28 *17:14 *1041:B 2.30292e-05
29 *18:10 *24:41 0.000136738
30 *19:14 *24:68 0.000221997
31 *21:8 *24:41 0
32 *21:8 *24:68 0
33 *23:22 *24:68 0.000103909
*RES
1 *1032:X *24:4 23 
2 *24:4 *24:8 48.495 
3 *24:8 *24:10 27.6121 
4 *24:10 *24:16 22.3121 
5 *24:16 *1041:B 26.0243 
6 *24:16 *24:41 46.385 
7 *24:41 *1042:B 23 
8 *24:10 *24:52 17.755 
9 *24:52 *24:68 45.5668 
10 *24:68 *1043:B 23 
11 *24:52 *1040:B 24.0979 
*END

*D_NET *25 0.00702947
*CONN
*I *1044:A I *D Xnor
*I *1033:B I *D Nand_gate
*I *1036:A I *D sky130_fd_sc_hd__clkbuf_4
*I *1024:Q O *D D_FF_pe
*CAP
1 *1044:A 0.000446654
2 *1033:B 0.000238584
3 *1036:A 0
4 *1024:Q 4.24211e-05
5 *25:12 0.00253294
6 *25:10 0.00302566
7 *25:8 0.000743215
8 *20:8 *1044:A 0
*RES
1 *1024:Q *25:8 38.6214 
2 *25:8 *25:10 4.01857 
3 *25:10 *25:12 50.1493 
4 *25:12 *1036:A 38 
5 *25:10 *1033:B 42.3293 
6 *25:8 *1044:A 45.83 
*END

*D_NET *26 0.00768832
*CONN
*I *1034:B I *D Nand_gate
*I *1045:A I *D Xnor
*I *1037:A I *D sky130_fd_sc_hd__clkbuf_4
*I *1025:Q O *D D_FF_pe
*CAP
1 *1034:B 0
2 *1045:A 0
3 *1037:A 0
4 *1025:Q 0.000280376
5 *26:34 0.00254642
6 *26:28 0.00269422
7 *26:20 0.000382043
8 *26:12 0.000234238
9 *26:10 0.000280376
10 *26:10 *1041:A 0
11 *26:20 *1047:A 3.45967e-05
12 *26:20 *30:10 8.99986e-05
13 *26:20 *32:24 0.000120315
14 *26:28 *1041:A 8.26672e-05
15 *26:28 *32:24 5.50106e-05
16 *26:34 *1046:A 0.000185434
17 *26:34 *31:10 5.29672e-05
18 *1045:B *26:20 9.84794e-05
19 *11:28 *26:34 2.07242e-05
20 *12:10 *26:28 0
21 *12:10 *26:34 0.00010018
22 *13:18 *26:34 8.1796e-05
23 *21:8 *26:10 0.000348475
24 *24:68 *26:10 0
*RES
1 *1025:Q *26:10 43.6964 
2 *26:10 *26:12 15 
3 *26:12 *26:20 5.8 
4 *26:20 *26:28 33.2314 
5 *26:28 *26:34 44.8464 
6 *26:34 *1037:A 23 
7 *26:20 *1045:A 23 
8 *26:12 *1034:B 23 
*END

*D_NET *27 0.0123069
*CONN
*I *1046:A I *D Xnor
*I *1035:B I *D Nand_gate
*I *1038:A I *D sky130_fd_sc_hd__clkbuf_4
*I *1026:Q O *D D_FF_pe
*CAP
1 *1046:A 0.000235616
2 *1035:B 0
3 *1038:A 0
4 *1026:Q 0.000738673
5 *27:25 0.000356693
6 *27:18 0.00209573
7 *27:16 0.00209573
8 *27:14 0.00250342
9 *27:12 0.00336317
10 *1046:A *31:10 5.41385e-05
11 *1026:CLK *27:14 4.3407e-05
12 *13:18 *1046:A 0
13 *13:18 *27:14 0
14 *14:10 *27:14 0.00013216
15 *14:18 *27:14 0.000223034
16 *14:18 *27:25 0.000135557
17 *17:14 *1046:A 0
18 *17:14 *27:25 0
19 *22:8 *1046:A 0.00014411
20 *26:34 *1046:A 0.000185434
*RES
1 *1026:Q *27:12 48.0671 
2 *27:12 *27:14 51.91 
3 *27:14 *27:16 15 
4 *27:16 *27:18 37.7829 
5 *27:18 *1038:A 23 
6 *27:12 *27:25 2.25786 
7 *27:25 *1035:B 38 
8 *27:25 *1046:A 43.51 
*END

*D_NET *28 0.0117004
*CONN
*I *1039:A I *D sky130_fd_sc_hd__clkbuf_4
*I *1047:A I *D Xnor
*I *1027:Q O *D D_FF_pe
*CAP
1 *1039:A 0
2 *1047:A 0.000538045
3 *1027:Q 5.67488e-05
4 *28:31 0.00215162
5 *28:29 0.00215162
6 *28:27 0.00297049
7 *28:25 0.00305047
8 *28:8 0.000674777
9 *1047:A *32:24 7.20638e-05
10 *26:20 *1047:A 3.45967e-05
*RES
1 *1027:Q *28:8 39.2014 
2 *28:8 *1047:A 45.7679 
3 *28:8 *28:25 16.2014 
4 *28:25 *28:27 39.2121 
5 *28:27 *28:29 15 
6 *28:29 *28:31 42.7543 
7 *28:31 *1039:A 38 
*END

*D_NET *29 0.00225646
*CONN
*I *1040:A I *D Nor_gate
*I *1044:Y I *D Xnor
*CAP
1 *1040:A 0.000407011
2 *1044:Y 0.000254438
3 *29:12 0.00066145
4 *1028:A *29:12 4.65096e-05
5 *1040:B *1040:A 0.000101764
6 *1044:B *29:12 0.000128422
7 *3:17 *1040:A 2.47132e-05
8 *16:10 *1040:A 0.00019747
9 *20:8 *1040:A 0
10 *20:8 *29:12 5.50381e-06
11 *23:10 *29:12 3.35885e-06
12 *23:22 *1040:A 0.000404927
13 *23:22 *29:12 7.65863e-06
14 *24:52 *1040:A 0
15 *24:68 *1040:A 1.32314e-05
*RES
1 *1044:Y *29:12 42.6504 
2 *29:12 *1040:A 48.6161 
*END

*D_NET *30 0.00174626
*CONN
*I *1041:A I *D Nor_gate
*I *1045:Y I *D Xnor
*CAP
1 *1041:A 0.000626045
2 *1045:Y 5.08829e-05
3 *30:10 0.000676928
4 *30:10 *32:24 0.000102488
5 *13:18 *1041:A 0
6 *21:8 *1041:A 0
7 *24:41 *1041:A 0.000117249
8 *26:10 *1041:A 0
9 *26:20 *30:10 8.99986e-05
10 *26:28 *1041:A 8.26672e-05
*RES
1 *1045:Y *30:10 39.9471 
2 *30:10 *1041:A 49.0614 
*END

*D_NET *31 0.00124443
*CONN
*I *1042:A I *D Nor_gate
*I *1046:Y I *D Xnor
*CAP
1 *1042:A 0.000170455
2 *1046:Y 0.000120613
3 *31:10 0.000291069
4 *1025:CLK *1042:A 2.18506e-05
5 *1046:A *31:10 5.41385e-05
6 *11:28 *1042:A 5.23699e-05
7 *11:28 *31:10 0.000273953
8 *13:18 *31:10 0
9 *22:8 *31:10 0.000116314
10 *24:41 *1042:A 9.07021e-05
11 *26:34 *31:10 5.29672e-05
*RES
1 *1046:Y *31:10 42.0807 
2 *31:10 *1042:A 41.5214 
*END

*D_NET *32 0.00191792
*CONN
*I *1043:A I *D Nor_gate
*I *1047:Y I *D Xnor
*CAP
1 *1043:A 0
2 *1047:Y 0.000595714
3 *32:24 0.000595714
4 *1028:A *32:24 5.50106e-05
5 *1045:B *32:24 2.25927e-05
6 *1047:A *32:24 7.20638e-05
7 *10:6 *32:24 0.00018282
8 *24:68 *32:24 0.000116188
9 *26:20 *32:24 0.000120315
10 *26:28 *32:24 5.50106e-05
11 *30:10 *32:24 0.000102488
*RES
1 *1047:Y *32:24 36.7025 
2 *32:24 *1043:A 23 
*END
