*SPEF "ieee 1481-1999"
*DESIGN "counter4s"
*DATE "11:11:11 Fri 11 11, 1111"
*VENDOR "OpenRCX"
*PROGRAM "Parallel Extraction"
*VERSION "1.0"
*DESIGN_FLOW "NAME_SCOPE LOCAL" "PIN_CAP NONE"
*DIVIDER /
*DELIMITER :
*BUS_DELIMITER []
*T_UNIT 1 NS
*C_UNIT 1 PF
*R_UNIT 1 OHM
*L_UNIT 1 HENRY

*NAME_MAP
*3 clk
*4 count[0]
*5 count[1]
*6 count[2]
*7 count[3]
*8 en
*9 rst
*10 c\[1\]
*11 c\[2\]
*12 c\[3\]
*13 clknet_0_clk
*14 clknet_1_0__leaf_clk
*15 clknet_1_1__leaf_clk
*16 d\[0\]
*17 d\[1\]
*18 d\[2\]
*19 d\[3\]
*20 nc\[1\]
*21 nc\[2\]
*22 nc\[3\]
*23 net1
*24 net2
*25 net3
*26 net4
*27 net5
*28 net6
*29 xo\[0\]
*30 xo\[1\]
*31 xo\[2\]
*32 xo\[3\]
*33 FILLER_0_0_109
*34 FILLER_0_0_113
*35 FILLER_0_0_125
*36 FILLER_0_0_133
*37 FILLER_0_0_139
*38 FILLER_0_0_141
*39 FILLER_0_0_153
*40 FILLER_0_0_165
*41 FILLER_0_0_169
*42 FILLER_0_0_181
*43 FILLER_0_0_189
*44 FILLER_0_0_21
*45 FILLER_0_0_27
*46 FILLER_0_0_29
*47 FILLER_0_0_41
*48 FILLER_0_0_53
*49 FILLER_0_0_57
*50 FILLER_0_0_69
*51 FILLER_0_0_81
*52 FILLER_0_0_85
*53 FILLER_0_0_9
*54 FILLER_0_0_97
*55 FILLER_0_10_109
*56 FILLER_0_10_121
*57 FILLER_0_10_133
*58 FILLER_0_10_139
*59 FILLER_0_10_141
*60 FILLER_0_10_15
*61 FILLER_0_10_153
*62 FILLER_0_10_165
*63 FILLER_0_10_177
*64 FILLER_0_10_189
*65 FILLER_0_10_27
*66 FILLER_0_10_29
*67 FILLER_0_10_3
*68 FILLER_0_10_41
*69 FILLER_0_10_53
*70 FILLER_0_10_65
*71 FILLER_0_10_77
*72 FILLER_0_10_83
*73 FILLER_0_10_85
*74 FILLER_0_10_97
*75 FILLER_0_11_105
*76 FILLER_0_11_111
*77 FILLER_0_11_113
*78 FILLER_0_11_125
*79 FILLER_0_11_137
*80 FILLER_0_11_149
*81 FILLER_0_11_15
*82 FILLER_0_11_161
*83 FILLER_0_11_167
*84 FILLER_0_11_169
*85 FILLER_0_11_181
*86 FILLER_0_11_189
*87 FILLER_0_11_27
*88 FILLER_0_11_3
*89 FILLER_0_11_39
*90 FILLER_0_11_51
*91 FILLER_0_11_55
*92 FILLER_0_11_57
*93 FILLER_0_11_69
*94 FILLER_0_11_81
*95 FILLER_0_11_93
*96 FILLER_0_12_109
*97 FILLER_0_12_121
*98 FILLER_0_12_133
*99 FILLER_0_12_139
*100 FILLER_0_12_141
*101 FILLER_0_12_15
*102 FILLER_0_12_153
*103 FILLER_0_12_165
*104 FILLER_0_12_177
*105 FILLER_0_12_189
*106 FILLER_0_12_27
*107 FILLER_0_12_29
*108 FILLER_0_12_3
*109 FILLER_0_12_41
*110 FILLER_0_12_53
*111 FILLER_0_12_65
*112 FILLER_0_12_77
*113 FILLER_0_12_83
*114 FILLER_0_12_85
*115 FILLER_0_12_97
*116 FILLER_0_13_105
*117 FILLER_0_13_111
*118 FILLER_0_13_113
*119 FILLER_0_13_125
*120 FILLER_0_13_137
*121 FILLER_0_13_149
*122 FILLER_0_13_15
*123 FILLER_0_13_161
*124 FILLER_0_13_167
*125 FILLER_0_13_169
*126 FILLER_0_13_181
*127 FILLER_0_13_189
*128 FILLER_0_13_27
*129 FILLER_0_13_3
*130 FILLER_0_13_39
*131 FILLER_0_13_51
*132 FILLER_0_13_55
*133 FILLER_0_13_57
*134 FILLER_0_13_69
*135 FILLER_0_13_81
*136 FILLER_0_13_93
*137 FILLER_0_14_109
*138 FILLER_0_14_121
*139 FILLER_0_14_133
*140 FILLER_0_14_139
*141 FILLER_0_14_141
*142 FILLER_0_14_15
*143 FILLER_0_14_153
*144 FILLER_0_14_165
*145 FILLER_0_14_177
*146 FILLER_0_14_189
*147 FILLER_0_14_27
*148 FILLER_0_14_29
*149 FILLER_0_14_3
*150 FILLER_0_14_41
*151 FILLER_0_14_53
*152 FILLER_0_14_65
*153 FILLER_0_14_77
*154 FILLER_0_14_83
*155 FILLER_0_14_85
*156 FILLER_0_14_97
*157 FILLER_0_15_105
*158 FILLER_0_15_111
*159 FILLER_0_15_113
*160 FILLER_0_15_125
*161 FILLER_0_15_137
*162 FILLER_0_15_149
*163 FILLER_0_15_15
*164 FILLER_0_15_161
*165 FILLER_0_15_167
*166 FILLER_0_15_169
*167 FILLER_0_15_181
*168 FILLER_0_15_189
*169 FILLER_0_15_27
*170 FILLER_0_15_3
*171 FILLER_0_15_39
*172 FILLER_0_15_51
*173 FILLER_0_15_55
*174 FILLER_0_15_57
*175 FILLER_0_15_69
*176 FILLER_0_15_93
*177 FILLER_0_16_109
*178 FILLER_0_16_121
*179 FILLER_0_16_133
*180 FILLER_0_16_139
*181 FILLER_0_16_141
*182 FILLER_0_16_15
*183 FILLER_0_16_153
*184 FILLER_0_16_165
*185 FILLER_0_16_177
*186 FILLER_0_16_189
*187 FILLER_0_16_27
*188 FILLER_0_16_29
*189 FILLER_0_16_3
*190 FILLER_0_16_41
*191 FILLER_0_16_53
*192 FILLER_0_16_65
*193 FILLER_0_16_77
*194 FILLER_0_16_83
*195 FILLER_0_16_85
*196 FILLER_0_16_97
*197 FILLER_0_17_101
*198 FILLER_0_17_109
*199 FILLER_0_17_113
*200 FILLER_0_17_125
*201 FILLER_0_17_137
*202 FILLER_0_17_149
*203 FILLER_0_17_15
*204 FILLER_0_17_161
*205 FILLER_0_17_167
*206 FILLER_0_17_169
*207 FILLER_0_17_181
*208 FILLER_0_17_189
*209 FILLER_0_17_27
*210 FILLER_0_17_3
*211 FILLER_0_17_39
*212 FILLER_0_17_51
*213 FILLER_0_17_55
*214 FILLER_0_17_57
*215 FILLER_0_17_69
*216 FILLER_0_17_81
*217 FILLER_0_17_93
*218 FILLER_0_17_97
*219 FILLER_0_18_111
*220 FILLER_0_18_125
*221 FILLER_0_18_137
*222 FILLER_0_18_141
*223 FILLER_0_18_15
*224 FILLER_0_18_153
*225 FILLER_0_18_165
*226 FILLER_0_18_177
*227 FILLER_0_18_189
*228 FILLER_0_18_27
*229 FILLER_0_18_29
*230 FILLER_0_18_3
*231 FILLER_0_18_41
*232 FILLER_0_18_53
*233 FILLER_0_18_65
*234 FILLER_0_18_77
*235 FILLER_0_18_83
*236 FILLER_0_19_136
*237 FILLER_0_19_148
*238 FILLER_0_19_15
*239 FILLER_0_19_160
*240 FILLER_0_19_169
*241 FILLER_0_19_181
*242 FILLER_0_19_189
*243 FILLER_0_19_27
*244 FILLER_0_19_3
*245 FILLER_0_19_39
*246 FILLER_0_19_51
*247 FILLER_0_19_55
*248 FILLER_0_19_57
*249 FILLER_0_19_69
*250 FILLER_0_19_81
*251 FILLER_0_1_105
*252 FILLER_0_1_111
*253 FILLER_0_1_113
*254 FILLER_0_1_125
*255 FILLER_0_1_137
*256 FILLER_0_1_149
*257 FILLER_0_1_15
*258 FILLER_0_1_161
*259 FILLER_0_1_167
*260 FILLER_0_1_169
*261 FILLER_0_1_181
*262 FILLER_0_1_189
*263 FILLER_0_1_27
*264 FILLER_0_1_3
*265 FILLER_0_1_39
*266 FILLER_0_1_51
*267 FILLER_0_1_55
*268 FILLER_0_1_57
*269 FILLER_0_1_69
*270 FILLER_0_1_81
*271 FILLER_0_1_93
*272 FILLER_0_20_141
*273 FILLER_0_20_153
*274 FILLER_0_20_165
*275 FILLER_0_20_177
*276 FILLER_0_20_189
*277 FILLER_0_20_21
*278 FILLER_0_20_27
*279 FILLER_0_20_29
*280 FILLER_0_20_41
*281 FILLER_0_20_53
*282 FILLER_0_20_65
*283 FILLER_0_20_77
*284 FILLER_0_20_83
*285 FILLER_0_20_85
*286 FILLER_0_20_9
*287 FILLER_0_20_98
*288 FILLER_0_21_110
*289 FILLER_0_21_119
*290 FILLER_0_21_128
*291 FILLER_0_21_140
*292 FILLER_0_21_15
*293 FILLER_0_21_152
*294 FILLER_0_21_164
*295 FILLER_0_21_169
*296 FILLER_0_21_181
*297 FILLER_0_21_189
*298 FILLER_0_21_27
*299 FILLER_0_21_3
*300 FILLER_0_21_39
*301 FILLER_0_21_51
*302 FILLER_0_21_55
*303 FILLER_0_21_57
*304 FILLER_0_21_69
*305 FILLER_0_21_81
*306 FILLER_0_21_89
*307 FILLER_0_21_98
*308 FILLER_0_22_109
*309 FILLER_0_22_121
*310 FILLER_0_22_133
*311 FILLER_0_22_139
*312 FILLER_0_22_141
*313 FILLER_0_22_15
*314 FILLER_0_22_153
*315 FILLER_0_22_165
*316 FILLER_0_22_177
*317 FILLER_0_22_189
*318 FILLER_0_22_27
*319 FILLER_0_22_29
*320 FILLER_0_22_3
*321 FILLER_0_22_41
*322 FILLER_0_22_53
*323 FILLER_0_22_65
*324 FILLER_0_22_77
*325 FILLER_0_22_83
*326 FILLER_0_22_85
*327 FILLER_0_23_105
*328 FILLER_0_23_111
*329 FILLER_0_23_113
*330 FILLER_0_23_125
*331 FILLER_0_23_137
*332 FILLER_0_23_149
*333 FILLER_0_23_15
*334 FILLER_0_23_161
*335 FILLER_0_23_167
*336 FILLER_0_23_169
*337 FILLER_0_23_181
*338 FILLER_0_23_189
*339 FILLER_0_23_27
*340 FILLER_0_23_3
*341 FILLER_0_23_39
*342 FILLER_0_23_51
*343 FILLER_0_23_55
*344 FILLER_0_23_57
*345 FILLER_0_23_69
*346 FILLER_0_23_81
*347 FILLER_0_23_93
*348 FILLER_0_24_109
*349 FILLER_0_24_121
*350 FILLER_0_24_133
*351 FILLER_0_24_139
*352 FILLER_0_24_141
*353 FILLER_0_24_15
*354 FILLER_0_24_153
*355 FILLER_0_24_165
*356 FILLER_0_24_177
*357 FILLER_0_24_189
*358 FILLER_0_24_27
*359 FILLER_0_24_29
*360 FILLER_0_24_3
*361 FILLER_0_24_41
*362 FILLER_0_24_53
*363 FILLER_0_24_65
*364 FILLER_0_24_77
*365 FILLER_0_24_83
*366 FILLER_0_24_85
*367 FILLER_0_24_97
*368 FILLER_0_25_105
*369 FILLER_0_25_111
*370 FILLER_0_25_113
*371 FILLER_0_25_125
*372 FILLER_0_25_137
*373 FILLER_0_25_149
*374 FILLER_0_25_15
*375 FILLER_0_25_161
*376 FILLER_0_25_167
*377 FILLER_0_25_169
*378 FILLER_0_25_181
*379 FILLER_0_25_189
*380 FILLER_0_25_27
*381 FILLER_0_25_3
*382 FILLER_0_25_39
*383 FILLER_0_25_51
*384 FILLER_0_25_55
*385 FILLER_0_25_57
*386 FILLER_0_25_69
*387 FILLER_0_25_81
*388 FILLER_0_25_93
*389 FILLER_0_26_109
*390 FILLER_0_26_121
*391 FILLER_0_26_133
*392 FILLER_0_26_139
*393 FILLER_0_26_141
*394 FILLER_0_26_15
*395 FILLER_0_26_153
*396 FILLER_0_26_165
*397 FILLER_0_26_177
*398 FILLER_0_26_189
*399 FILLER_0_26_27
*400 FILLER_0_26_29
*401 FILLER_0_26_3
*402 FILLER_0_26_41
*403 FILLER_0_26_53
*404 FILLER_0_26_65
*405 FILLER_0_26_77
*406 FILLER_0_26_83
*407 FILLER_0_26_85
*408 FILLER_0_26_97
*409 FILLER_0_27_105
*410 FILLER_0_27_111
*411 FILLER_0_27_113
*412 FILLER_0_27_125
*413 FILLER_0_27_137
*414 FILLER_0_27_149
*415 FILLER_0_27_15
*416 FILLER_0_27_161
*417 FILLER_0_27_167
*418 FILLER_0_27_169
*419 FILLER_0_27_181
*420 FILLER_0_27_189
*421 FILLER_0_27_27
*422 FILLER_0_27_3
*423 FILLER_0_27_39
*424 FILLER_0_27_51
*425 FILLER_0_27_55
*426 FILLER_0_27_57
*427 FILLER_0_27_69
*428 FILLER_0_27_81
*429 FILLER_0_27_93
*430 FILLER_0_28_109
*431 FILLER_0_28_121
*432 FILLER_0_28_133
*433 FILLER_0_28_139
*434 FILLER_0_28_141
*435 FILLER_0_28_15
*436 FILLER_0_28_153
*437 FILLER_0_28_165
*438 FILLER_0_28_177
*439 FILLER_0_28_189
*440 FILLER_0_28_27
*441 FILLER_0_28_29
*442 FILLER_0_28_3
*443 FILLER_0_28_41
*444 FILLER_0_28_53
*445 FILLER_0_28_65
*446 FILLER_0_28_77
*447 FILLER_0_28_83
*448 FILLER_0_28_85
*449 FILLER_0_28_97
*450 FILLER_0_29_105
*451 FILLER_0_29_111
*452 FILLER_0_29_113
*453 FILLER_0_29_125
*454 FILLER_0_29_137
*455 FILLER_0_29_149
*456 FILLER_0_29_15
*457 FILLER_0_29_161
*458 FILLER_0_29_167
*459 FILLER_0_29_169
*460 FILLER_0_29_181
*461 FILLER_0_29_189
*462 FILLER_0_29_27
*463 FILLER_0_29_3
*464 FILLER_0_29_39
*465 FILLER_0_29_51
*466 FILLER_0_29_55
*467 FILLER_0_29_57
*468 FILLER_0_29_69
*469 FILLER_0_29_81
*470 FILLER_0_29_93
*471 FILLER_0_2_109
*472 FILLER_0_2_121
*473 FILLER_0_2_133
*474 FILLER_0_2_139
*475 FILLER_0_2_141
*476 FILLER_0_2_15
*477 FILLER_0_2_153
*478 FILLER_0_2_165
*479 FILLER_0_2_177
*480 FILLER_0_2_189
*481 FILLER_0_2_27
*482 FILLER_0_2_29
*483 FILLER_0_2_3
*484 FILLER_0_2_41
*485 FILLER_0_2_53
*486 FILLER_0_2_65
*487 FILLER_0_2_77
*488 FILLER_0_2_83
*489 FILLER_0_2_85
*490 FILLER_0_2_97
*491 FILLER_0_30_109
*492 FILLER_0_30_121
*493 FILLER_0_30_133
*494 FILLER_0_30_139
*495 FILLER_0_30_141
*496 FILLER_0_30_15
*497 FILLER_0_30_153
*498 FILLER_0_30_165
*499 FILLER_0_30_177
*500 FILLER_0_30_189
*501 FILLER_0_30_27
*502 FILLER_0_30_29
*503 FILLER_0_30_3
*504 FILLER_0_30_41
*505 FILLER_0_30_53
*506 FILLER_0_30_65
*507 FILLER_0_30_77
*508 FILLER_0_30_83
*509 FILLER_0_30_85
*510 FILLER_0_30_97
*511 FILLER_0_31_105
*512 FILLER_0_31_111
*513 FILLER_0_31_113
*514 FILLER_0_31_125
*515 FILLER_0_31_137
*516 FILLER_0_31_149
*517 FILLER_0_31_15
*518 FILLER_0_31_161
*519 FILLER_0_31_167
*520 FILLER_0_31_169
*521 FILLER_0_31_181
*522 FILLER_0_31_189
*523 FILLER_0_31_27
*524 FILLER_0_31_3
*525 FILLER_0_31_39
*526 FILLER_0_31_51
*527 FILLER_0_31_55
*528 FILLER_0_31_57
*529 FILLER_0_31_69
*530 FILLER_0_31_81
*531 FILLER_0_31_93
*532 FILLER_0_32_109
*533 FILLER_0_32_121
*534 FILLER_0_32_133
*535 FILLER_0_32_139
*536 FILLER_0_32_141
*537 FILLER_0_32_15
*538 FILLER_0_32_153
*539 FILLER_0_32_165
*540 FILLER_0_32_177
*541 FILLER_0_32_189
*542 FILLER_0_32_27
*543 FILLER_0_32_29
*544 FILLER_0_32_3
*545 FILLER_0_32_41
*546 FILLER_0_32_53
*547 FILLER_0_32_65
*548 FILLER_0_32_77
*549 FILLER_0_32_83
*550 FILLER_0_32_85
*551 FILLER_0_32_97
*552 FILLER_0_33_105
*553 FILLER_0_33_111
*554 FILLER_0_33_113
*555 FILLER_0_33_125
*556 FILLER_0_33_137
*557 FILLER_0_33_149
*558 FILLER_0_33_15
*559 FILLER_0_33_161
*560 FILLER_0_33_167
*561 FILLER_0_33_169
*562 FILLER_0_33_181
*563 FILLER_0_33_189
*564 FILLER_0_33_27
*565 FILLER_0_33_3
*566 FILLER_0_33_39
*567 FILLER_0_33_51
*568 FILLER_0_33_55
*569 FILLER_0_33_57
*570 FILLER_0_33_69
*571 FILLER_0_33_81
*572 FILLER_0_33_93
*573 FILLER_0_34_109
*574 FILLER_0_34_121
*575 FILLER_0_34_133
*576 FILLER_0_34_139
*577 FILLER_0_34_141
*578 FILLER_0_34_15
*579 FILLER_0_34_153
*580 FILLER_0_34_165
*581 FILLER_0_34_177
*582 FILLER_0_34_189
*583 FILLER_0_34_27
*584 FILLER_0_34_29
*585 FILLER_0_34_3
*586 FILLER_0_34_41
*587 FILLER_0_34_53
*588 FILLER_0_34_65
*589 FILLER_0_34_77
*590 FILLER_0_34_83
*591 FILLER_0_34_85
*592 FILLER_0_34_97
*593 FILLER_0_35_105
*594 FILLER_0_35_111
*595 FILLER_0_35_113
*596 FILLER_0_35_125
*597 FILLER_0_35_137
*598 FILLER_0_35_149
*599 FILLER_0_35_15
*600 FILLER_0_35_161
*601 FILLER_0_35_167
*602 FILLER_0_35_169
*603 FILLER_0_35_181
*604 FILLER_0_35_189
*605 FILLER_0_35_27
*606 FILLER_0_35_3
*607 FILLER_0_35_39
*608 FILLER_0_35_51
*609 FILLER_0_35_55
*610 FILLER_0_35_57
*611 FILLER_0_35_69
*612 FILLER_0_35_81
*613 FILLER_0_35_93
*614 FILLER_0_36_109
*615 FILLER_0_36_121
*616 FILLER_0_36_133
*617 FILLER_0_36_139
*618 FILLER_0_36_141
*619 FILLER_0_36_15
*620 FILLER_0_36_153
*621 FILLER_0_36_165
*622 FILLER_0_36_177
*623 FILLER_0_36_189
*624 FILLER_0_36_27
*625 FILLER_0_36_29
*626 FILLER_0_36_3
*627 FILLER_0_36_41
*628 FILLER_0_36_53
*629 FILLER_0_36_65
*630 FILLER_0_36_77
*631 FILLER_0_36_83
*632 FILLER_0_36_85
*633 FILLER_0_36_97
*634 FILLER_0_37_105
*635 FILLER_0_37_111
*636 FILLER_0_37_113
*637 FILLER_0_37_125
*638 FILLER_0_37_137
*639 FILLER_0_37_149
*640 FILLER_0_37_15
*641 FILLER_0_37_161
*642 FILLER_0_37_167
*643 FILLER_0_37_169
*644 FILLER_0_37_181
*645 FILLER_0_37_189
*646 FILLER_0_37_27
*647 FILLER_0_37_3
*648 FILLER_0_37_39
*649 FILLER_0_37_51
*650 FILLER_0_37_55
*651 FILLER_0_37_57
*652 FILLER_0_37_69
*653 FILLER_0_37_81
*654 FILLER_0_37_93
*655 FILLER_0_38_109
*656 FILLER_0_38_113
*657 FILLER_0_38_125
*658 FILLER_0_38_132
*659 FILLER_0_38_141
*660 FILLER_0_38_153
*661 FILLER_0_38_165
*662 FILLER_0_38_169
*663 FILLER_0_38_181
*664 FILLER_0_38_189
*665 FILLER_0_38_21
*666 FILLER_0_38_27
*667 FILLER_0_38_29
*668 FILLER_0_38_41
*669 FILLER_0_38_53
*670 FILLER_0_38_57
*671 FILLER_0_38_69
*672 FILLER_0_38_81
*673 FILLER_0_38_85
*674 FILLER_0_38_9
*675 FILLER_0_38_97
*676 FILLER_0_3_105
*677 FILLER_0_3_111
*678 FILLER_0_3_113
*679 FILLER_0_3_125
*680 FILLER_0_3_137
*681 FILLER_0_3_149
*682 FILLER_0_3_15
*683 FILLER_0_3_161
*684 FILLER_0_3_167
*685 FILLER_0_3_169
*686 FILLER_0_3_181
*687 FILLER_0_3_189
*688 FILLER_0_3_27
*689 FILLER_0_3_3
*690 FILLER_0_3_39
*691 FILLER_0_3_51
*692 FILLER_0_3_55
*693 FILLER_0_3_57
*694 FILLER_0_3_69
*695 FILLER_0_3_81
*696 FILLER_0_3_93
*697 FILLER_0_4_109
*698 FILLER_0_4_121
*699 FILLER_0_4_133
*700 FILLER_0_4_139
*701 FILLER_0_4_141
*702 FILLER_0_4_15
*703 FILLER_0_4_153
*704 FILLER_0_4_165
*705 FILLER_0_4_177
*706 FILLER_0_4_189
*707 FILLER_0_4_27
*708 FILLER_0_4_29
*709 FILLER_0_4_3
*710 FILLER_0_4_41
*711 FILLER_0_4_53
*712 FILLER_0_4_65
*713 FILLER_0_4_77
*714 FILLER_0_4_83
*715 FILLER_0_4_85
*716 FILLER_0_4_97
*717 FILLER_0_5_105
*718 FILLER_0_5_111
*719 FILLER_0_5_113
*720 FILLER_0_5_125
*721 FILLER_0_5_137
*722 FILLER_0_5_149
*723 FILLER_0_5_15
*724 FILLER_0_5_161
*725 FILLER_0_5_167
*726 FILLER_0_5_169
*727 FILLER_0_5_181
*728 FILLER_0_5_189
*729 FILLER_0_5_27
*730 FILLER_0_5_3
*731 FILLER_0_5_39
*732 FILLER_0_5_51
*733 FILLER_0_5_55
*734 FILLER_0_5_57
*735 FILLER_0_5_69
*736 FILLER_0_5_81
*737 FILLER_0_5_93
*738 FILLER_0_6_109
*739 FILLER_0_6_121
*740 FILLER_0_6_133
*741 FILLER_0_6_139
*742 FILLER_0_6_141
*743 FILLER_0_6_15
*744 FILLER_0_6_153
*745 FILLER_0_6_165
*746 FILLER_0_6_177
*747 FILLER_0_6_189
*748 FILLER_0_6_27
*749 FILLER_0_6_29
*750 FILLER_0_6_3
*751 FILLER_0_6_41
*752 FILLER_0_6_53
*753 FILLER_0_6_65
*754 FILLER_0_6_77
*755 FILLER_0_6_83
*756 FILLER_0_6_85
*757 FILLER_0_6_97
*758 FILLER_0_7_105
*759 FILLER_0_7_111
*760 FILLER_0_7_113
*761 FILLER_0_7_125
*762 FILLER_0_7_137
*763 FILLER_0_7_149
*764 FILLER_0_7_15
*765 FILLER_0_7_161
*766 FILLER_0_7_167
*767 FILLER_0_7_169
*768 FILLER_0_7_181
*769 FILLER_0_7_185
*770 FILLER_0_7_27
*771 FILLER_0_7_3
*772 FILLER_0_7_39
*773 FILLER_0_7_51
*774 FILLER_0_7_55
*775 FILLER_0_7_57
*776 FILLER_0_7_69
*777 FILLER_0_7_81
*778 FILLER_0_7_93
*779 FILLER_0_8_109
*780 FILLER_0_8_121
*781 FILLER_0_8_133
*782 FILLER_0_8_139
*783 FILLER_0_8_141
*784 FILLER_0_8_15
*785 FILLER_0_8_153
*786 FILLER_0_8_165
*787 FILLER_0_8_177
*788 FILLER_0_8_189
*789 FILLER_0_8_27
*790 FILLER_0_8_29
*791 FILLER_0_8_3
*792 FILLER_0_8_41
*793 FILLER_0_8_53
*794 FILLER_0_8_65
*795 FILLER_0_8_77
*796 FILLER_0_8_83
*797 FILLER_0_8_85
*798 FILLER_0_8_97
*799 FILLER_0_9_105
*800 FILLER_0_9_111
*801 FILLER_0_9_113
*802 FILLER_0_9_125
*803 FILLER_0_9_137
*804 FILLER_0_9_149
*805 FILLER_0_9_15
*806 FILLER_0_9_161
*807 FILLER_0_9_167
*808 FILLER_0_9_169
*809 FILLER_0_9_181
*810 FILLER_0_9_189
*811 FILLER_0_9_27
*812 FILLER_0_9_3
*813 FILLER_0_9_39
*814 FILLER_0_9_51
*815 FILLER_0_9_55
*816 FILLER_0_9_57
*817 FILLER_0_9_69
*818 FILLER_0_9_81
*819 FILLER_0_9_93
*820 PHY_0
*821 PHY_1
*822 PHY_10
*823 PHY_11
*824 PHY_12
*825 PHY_13
*826 PHY_14
*827 PHY_15
*828 PHY_16
*829 PHY_17
*830 PHY_18
*831 PHY_19
*832 PHY_2
*833 PHY_20
*834 PHY_21
*835 PHY_22
*836 PHY_23
*837 PHY_24
*838 PHY_25
*839 PHY_26
*840 PHY_27
*841 PHY_28
*842 PHY_29
*843 PHY_3
*844 PHY_30
*845 PHY_31
*846 PHY_32
*847 PHY_33
*848 PHY_34
*849 PHY_35
*850 PHY_36
*851 PHY_37
*852 PHY_38
*853 PHY_39
*854 PHY_4
*855 PHY_40
*856 PHY_41
*857 PHY_42
*858 PHY_43
*859 PHY_44
*860 PHY_45
*861 PHY_46
*862 PHY_47
*863 PHY_48
*864 PHY_49
*865 PHY_5
*866 PHY_50
*867 PHY_51
*868 PHY_52
*869 PHY_53
*870 PHY_54
*871 PHY_55
*872 PHY_56
*873 PHY_57
*874 PHY_58
*875 PHY_59
*876 PHY_6
*877 PHY_60
*878 PHY_61
*879 PHY_62
*880 PHY_63
*881 PHY_64
*882 PHY_65
*883 PHY_66
*884 PHY_67
*885 PHY_68
*886 PHY_69
*887 PHY_7
*888 PHY_70
*889 PHY_71
*890 PHY_72
*891 PHY_73
*892 PHY_74
*893 PHY_75
*894 PHY_76
*895 PHY_77
*896 PHY_8
*897 PHY_9
*898 TAP_100
*899 TAP_101
*900 TAP_102
*901 TAP_103
*902 TAP_104
*903 TAP_105
*904 TAP_106
*905 TAP_107
*906 TAP_108
*907 TAP_109
*908 TAP_110
*909 TAP_111
*910 TAP_112
*911 TAP_113
*912 TAP_114
*913 TAP_115
*914 TAP_116
*915 TAP_117
*916 TAP_118
*917 TAP_119
*918 TAP_120
*919 TAP_121
*920 TAP_122
*921 TAP_123
*922 TAP_124
*923 TAP_125
*924 TAP_126
*925 TAP_127
*926 TAP_128
*927 TAP_129
*928 TAP_130
*929 TAP_131
*930 TAP_132
*931 TAP_133
*932 TAP_134
*933 TAP_135
*934 TAP_136
*935 TAP_137
*936 TAP_138
*937 TAP_139
*938 TAP_140
*939 TAP_141
*940 TAP_142
*941 TAP_143
*942 TAP_144
*943 TAP_145
*944 TAP_146
*945 TAP_147
*946 TAP_148
*947 TAP_149
*948 TAP_150
*949 TAP_151
*950 TAP_152
*951 TAP_153
*952 TAP_154
*953 TAP_155
*954 TAP_156
*955 TAP_157
*956 TAP_158
*957 TAP_159
*958 TAP_160
*959 TAP_161
*960 TAP_162
*961 TAP_163
*962 TAP_164
*963 TAP_165
*964 TAP_166
*965 TAP_167
*966 TAP_168
*967 TAP_169
*968 TAP_170
*969 TAP_171
*970 TAP_172
*971 TAP_173
*972 TAP_174
*973 TAP_175
*974 TAP_176
*975 TAP_177
*976 TAP_178
*977 TAP_179
*978 TAP_180
*979 TAP_181
*980 TAP_182
*981 TAP_183
*982 TAP_184
*983 TAP_185
*984 TAP_186
*985 TAP_187
*986 TAP_188
*987 TAP_189
*988 TAP_190
*989 TAP_191
*990 TAP_192
*991 TAP_193
*992 TAP_194
*993 TAP_195
*994 TAP_196
*995 TAP_197
*996 TAP_198
*997 TAP_199
*998 TAP_200
*999 TAP_78
*1000 TAP_79
*1001 TAP_80
*1002 TAP_81
*1003 TAP_82
*1004 TAP_83
*1005 TAP_84
*1006 TAP_85
*1007 TAP_86
*1008 TAP_87
*1009 TAP_88
*1010 TAP_89
*1011 TAP_90
*1012 TAP_91
*1013 TAP_92
*1014 TAP_93
*1015 TAP_94
*1016 TAP_95
*1017 TAP_96
*1018 TAP_97
*1019 TAP_98
*1020 TAP_99
*1021 clkbuf_0_clk
*1022 clkbuf_1_0__f_clk
*1023 clkbuf_1_1__f_clk
*1024 f0
*1025 f1
*1026 f2
*1027 f3
*1028 i1
*1029 i2
*1030 i3
*1031 input1
*1032 input2
*1033 n1
*1034 n2
*1035 n3
*1036 output3
*1037 output4
*1038 output5
*1039 output6
*1040 r0
*1041 r1
*1042 r2
*1043 r3
*1044 x0
*1045 x1
*1046 x2
*1047 x3

*PORTS
clk I
count[0] O
count[1] O
count[2] O
count[3] O
en I
rst I

*D_NET *3 0.00774266
*CONN
*P clk I
*I *1021:A I *D sky130_fd_sc_hd__clkbuf_16
*CAP
1 clk 0.00385948
2 *1021:A 0.00385948
3 *1021:A *1028:A 0
4 *1021:A *1040:A 2.3704e-05
*RES
1 clk *1021:A 35.4642 
*END

*D_NET *4 0.000794933
*CONN
*P count[0] O
*I *1036:X O *D sky130_fd_sc_hd__clkbuf_4
*CAP
1 count[0] 0.000397466
2 *1036:X 0.000397466
*RES
1 *1036:X count[0] 21.7643 
*END

*D_NET *5 0.000577282
*CONN
*P count[1] O
*I *1037:X O *D sky130_fd_sc_hd__clkbuf_4
*CAP
1 count[1] 0.000288641
2 *1037:X 0.000288641
*RES
1 *1037:X count[1] 20.8518 
*END

*D_NET *6 0.00142033
*CONN
*P count[2] O
*I *1038:X O *D sky130_fd_sc_hd__clkbuf_4
*CAP
1 count[2] 0.000710163
2 *1038:X 0.000710163
*RES
1 *1038:X count[2] 27.2821 
*END

*D_NET *7 0.00170052
*CONN
*P count[3] O
*I *1039:X O *D sky130_fd_sc_hd__clkbuf_4
*CAP
1 count[3] 0.000850261
2 *1039:X 0.000850261
*RES
1 *1039:X count[3] 29.2107 
*END

*D_NET *8 0.00115997
*CONN
*P en I
*I *1031:A I *D sky130_fd_sc_hd__buf_1
*CAP
1 en 0.000565048
2 *1031:A 0.000565048
3 *1031:A *23:8 2.98741e-05
*RES
1 en *1031:A 24.7821 
*END

*D_NET *9 0.000590334
*CONN
*P rst I
*I *1032:A I *D sky130_fd_sc_hd__clkbuf_2
*CAP
1 rst 0.000295167
2 *1032:A 0.000295167
*RES
1 rst *1032:A 20.3888 
*END

*D_NET *10 0.000783324
*CONN
*I *1045:B I *D Xnor
*I *1034:A I *D Nand_gate
*I *1028:Y O *D inverter
*CAP
1 *1045:B 7.02206e-05
2 *1034:A 0
3 *1028:Y 3.76811e-05
4 *10:6 0.000107902
5 *1045:B *1027:D 0.000144773
6 *1045:B *1043:A 2.24195e-05
7 *1045:B *26:20 9.90367e-05
8 *10:6 *1027:D 6.42778e-05
9 *10:6 *1043:A 0.000183713
10 *10:6 *1043:B 5.33005e-05
*RES
1 *1028:Y *10:6 11.0679 
2 *10:6 *1034:A 9.3 
3 *10:6 *1045:B 11.4964 
*END

*D_NET *11 0.00277385
*CONN
*I *1046:B I *D Xnor
*I *1035:A I *D Nand_gate
*I *1029:Y O *D inverter
*CAP
1 *1046:B 0
2 *1035:A 0.000329487
3 *1029:Y 0.000423334
4 *11:14 0.000752821
5 *1035:A *1022:A 3.18988e-05
6 *1035:A *1025:CLK 5.71472e-05
7 *1035:A *1042:A 0.00031582
8 *1035:A *1042:B 0
9 *1035:A *26:32 2.07382e-05
10 *11:14 *1022:A 0.000229456
11 *11:14 *1023:A 0.000183393
12 *11:14 *1029:A 0.000322326
13 *11:14 *1043:B 0.000107431
*RES
1 *1029:Y *11:14 28.0679 
2 *11:14 *1035:A 24.0321 
3 *11:14 *1046:B 9.3 
*END

*D_NET *12 0.000452877
*CONN
*I *1047:B I *D Xnor
*I *1030:Y O *D inverter
*CAP
1 *1047:B 0.000175959
2 *1030:Y 0.000175959
3 *1047:B *26:32 0.00010096
*RES
1 *1030:Y *1047:B 30.4929 
*END

*D_NET *13 0.00345094
*CONN
*I *1023:A I *D sky130_fd_sc_hd__clkbuf_16
*I *1022:A I *D sky130_fd_sc_hd__clkbuf_16
*I *1021:X O *D sky130_fd_sc_hd__clkbuf_16
*CAP
1 *1023:A 0.000462321
2 *1022:A 0.000765765
3 *1021:X 0
4 *13:4 0.00122809
5 *1022:A *1025:D 0.000359954
6 *1022:A *1041:A 0
7 *1022:A *1042:A 0
8 *1022:A *1042:B 0
9 *1022:A *1046:A 0
10 *1022:A *26:32 8.07313e-05
11 *1022:A *27:16 0
12 *1023:A *15:8 0.000109333
13 *1035:A *1022:A 3.18988e-05
14 *11:14 *1022:A 0.000229456
15 *11:14 *1023:A 0.000183393
*RES
1 *1021:X *13:4 9.3 
2 *13:4 *1022:A 34.1571 
3 *13:4 *1023:A 18.0857 
*END

*D_NET *14 0.00259857
*CONN
*I *1026:CLK I *D D_FF_pe
*I *1025:CLK I *D D_FF_pe
*I *1022:X O *D sky130_fd_sc_hd__clkbuf_16
*CAP
1 *1026:CLK 0.000144451
2 *1025:CLK 0.000322832
3 *1022:X 0.000403304
4 *14:10 0.000870587
5 *1025:CLK *1025:D 0
6 *1025:CLK *1026:D 0.000175505
7 *1025:CLK *1042:A 2.14757e-05
8 *1025:CLK *1042:B 9.90431e-05
9 *1025:CLK *27:16 0.00020112
10 *1025:CLK *27:25 0.000123295
11 *1026:CLK *27:16 4.35048e-05
12 *14:10 *27:16 0.000136301
13 *1035:A *1025:CLK 5.71472e-05
*RES
1 *1022:X *14:10 20.9607 
2 *14:10 *1025:CLK 29.5857 
3 *14:10 *1026:CLK 16.3893 
*END

*D_NET *15 0.00302687
*CONN
*I *1027:CLK I *D D_FF_pe
*I *1024:CLK I *D D_FF_pe
*I *1023:X O *D sky130_fd_sc_hd__clkbuf_16
*CAP
1 *1027:CLK 0.000348253
2 *1024:CLK 4.04628e-05
3 *1023:X 0.000754587
4 *15:8 0.0011433
5 *1024:CLK *1033:A 6.74815e-05
6 *1024:CLK *1043:B 0.000129868
7 *1027:CLK *1027:D 0
8 *1027:CLK *1033:A 0.000148706
9 *1027:CLK *1043:B 0.000284879
10 *1027:CLK *23:10 0
11 *1023:A *15:8 0.000109333
*RES
1 *1023:X *15:8 22.55 
2 *15:8 *1024:CLK 15.4429 
3 *15:8 *1027:CLK 21.5679 
*END

*D_NET *16 0.000777716
*CONN
*I *1024:D I *D D_FF_pe
*I *1040:Y O *D Nor_gate
*CAP
1 *1024:D 0.000139494
2 *1040:Y 0.000139494
3 *1024:D *1033:A 0.000320787
4 *1024:D *1040:A 0.000177941
*RES
1 *1040:Y *1024:D 31.2071 
*END

*D_NET *17 0.00129301
*CONN
*I *1025:D I *D D_FF_pe
*I *1041:Y O *D Nor_gate
*CAP
1 *1025:D 0.000455157
2 *1041:Y 0.000455157
3 *1025:D *1026:D 0
4 *1025:D *1041:B 2.27416e-05
5 *1025:D *1046:A 0
6 *1025:D *27:25 0
7 *1022:A *1025:D 0.000359954
8 *1025:CLK *1025:D 0
*RES
1 *1041:Y *1025:D 35.5286 
*END

*D_NET *18 0.000717164
*CONN
*I *1026:D I *D D_FF_pe
*I *1042:Y O *D Nor_gate
*CAP
1 *1026:D 0.000202354
2 *1042:Y 0.000202354
3 *1026:D *1042:B 0.000136951
4 *1025:CLK *1026:D 0.000175505
5 *1025:D *1026:D 0
*RES
1 *1042:Y *1026:D 31.2071 
*END

*D_NET *19 0.00132533
*CONN
*I *1027:D I *D D_FF_pe
*I *1043:Y O *D Nor_gate
*CAP
1 *1027:D 0.000446805
2 *1043:Y 0.000446805
3 *1027:D *1043:B 0.000222666
4 *1027:CLK *1027:D 0
5 *1045:B *1027:D 0.000144773
6 *10:6 *1027:D 6.42778e-05
*RES
1 *1043:Y *1027:D 34.2429 
*END

*D_NET *20 0.00138374
*CONN
*I *1028:A I *D inverter
*I *1033:Y O *D Nand_gate
*CAP
1 *1028:A 0.000564532
2 *1033:Y 0.000564532
3 *1028:A *1040:A 5.06733e-05
4 *1028:A *1043:A 5.52302e-05
5 *1028:A *1043:B 5.13076e-05
6 *1028:A *1044:A 0
7 *1028:A *1044:B 9.74665e-05
8 *1021:A *1028:A 0
*RES
1 *1033:Y *1028:A 37.5107 
*END

*D_NET *21 0.00128931
*CONN
*I *1029:A I *D inverter
*I *1034:Y O *D Nand_gate
*CAP
1 *1029:A 0.000325898
2 *1034:Y 0.000325898
3 *1029:A *1041:A 0
4 *1029:A *1042:B 0
5 *1029:A *1043:B 0
6 *1029:A *26:12 0.000315187
7 *11:14 *1029:A 0.000322326
*RES
1 *1034:Y *1029:A 35.6536 
*END

*D_NET *22 0.000309976
*CONN
*I *1030:A I *D inverter
*I *1035:Y O *D Nand_gate
*CAP
1 *1030:A 3.75669e-05
2 *1035:Y 3.75669e-05
3 *1030:A *1042:A 0.000104974
4 *1030:A *1046:A 0.000129868
*RES
1 *1035:Y *1030:A 29.2429 
*END

*D_NET *23 0.00765004
*CONN
*I *1044:B I *D Xnor
*I *1033:A I *D Nand_gate
*I *1031:X O *D sky130_fd_sc_hd__buf_1
*CAP
1 *1044:B 8.89729e-05
2 *1033:A 0.000455977
3 *1031:X 0.000440864
4 *23:10 0.00273876
5 *23:8 0.00263467
6 *1033:A *1040:A 0.000397676
7 *1033:A *1043:B 0.000102752
8 *1044:B *1040:A 0.000122625
9 *23:10 *1040:A 3.4323e-06
10 *1024:CLK *1033:A 6.74815e-05
11 *1024:D *1033:A 0.000320787
12 *1027:CLK *1033:A 0.000148706
13 *1027:CLK *23:10 0
14 *1028:A *1044:B 9.74665e-05
15 *1031:A *23:8 2.98741e-05
*RES
1 *1031:X *23:8 18.8536 
2 *23:8 *23:10 40.3482 
3 *23:10 *1033:A 25.8625 
4 *23:10 *1044:B 15.9696 
*END

*D_NET *24 0.0133687
*CONN
*I *1040:B I *D Nor_gate
*I *1043:B I *D Nor_gate
*I *1042:B I *D Nor_gate
*I *1041:B I *D Nor_gate
*I *1032:X O *D sky130_fd_sc_hd__clkbuf_2
*CAP
1 *1040:B 3.3579e-05
2 *1043:B 0.000510937
3 *1042:B 0.000856734
4 *1041:B 0.000143827
5 *1032:X 0.00249756
6 *24:52 0.000678725
7 *24:16 0.00137286
8 *24:10 0.00181782
9 *24:8 0.00380887
10 *1040:B *1040:A 0.000100261
11 *1042:B *1041:A 0.000116535
12 *1042:B *1042:A 8.99783e-05
13 *1043:B *1040:A 1.33343e-05
14 *1043:B *1043:A 0.000116752
15 *1043:B *26:12 0
16 *24:52 *1040:A 0
17 *1022:A *1042:B 0
18 *1024:CLK *1043:B 0.000129868
19 *1025:CLK *1042:B 9.90431e-05
20 *1025:D *1041:B 2.27416e-05
21 *1026:D *1042:B 0.000136951
22 *1027:CLK *1043:B 0.000284879
23 *1027:D *1043:B 0.000222666
24 *1028:A *1043:B 5.13076e-05
25 *1029:A *1042:B 0
26 *1029:A *1043:B 0
27 *1033:A *1043:B 0.000102752
28 *1035:A *1042:B 0
29 *10:6 *1043:B 5.33005e-05
30 *11:14 *1043:B 0.000107431
*RES
1 *1032:X *24:8 42.675 
2 *24:8 *24:10 23.8036 
3 *24:10 *24:16 10.8036 
4 *24:16 *1041:B 11.9071 
5 *24:16 *1042:B 32.425 
6 *24:10 *24:52 6.875 
7 *24:52 *1043:B 31.7196 
8 *24:52 *1040:B 10.2464 
*END

*D_NET *25 0.00643813
*CONN
*I *1044:A I *D Xnor
*I *1033:B I *D Nand_gate
*I *1036:A I *D sky130_fd_sc_hd__clkbuf_4
*I *1024:Q O *D D_FF_pe
*CAP
1 *1044:A 0.00040358
2 *1033:B 0.000223963
3 *1036:A 0
4 *1024:Q 3.72704e-05
5 *25:14 0.00233553
6 *25:10 0.00277822
7 *25:8 0.000659576
8 *1028:A *1044:A 0
*RES
1 *1024:Q *25:8 14.3357 
2 *25:8 *25:10 3.46429 
3 *25:10 *25:14 47.7321 
4 *25:14 *1036:A 9.3 
5 *25:10 *1033:B 17.5321 
6 *25:8 *1044:A 20.55 
*END

*D_NET *26 0.00722767
*CONN
*I *1034:B I *D Nand_gate
*I *1045:A I *D Xnor
*I *1037:A I *D sky130_fd_sc_hd__clkbuf_4
*I *1025:Q O *D D_FF_pe
*CAP
1 *1034:B 0
2 *1045:A 0
3 *1037:A 0.00149763
4 *1025:Q 0.000239731
5 *26:32 0.00253959
6 *26:20 0.00126197
7 *26:12 0.000459742
8 *26:12 *1041:A 0
9 *26:20 *1041:A 8.61634e-05
10 *26:20 *1043:A 0.000118901
11 *26:20 *1047:A 3.37729e-05
12 *26:32 *1041:A 7.92975e-05
13 *26:32 *1042:A 5.23057e-05
14 *26:32 *1043:A 5.52302e-05
15 *26:32 *1046:A 0.000186669
16 *1022:A *26:32 8.07313e-05
17 *1029:A *26:12 0.000315187
18 *1035:A *26:32 2.07382e-05
19 *1043:B *26:12 0
20 *1045:B *26:20 9.90367e-05
21 *1047:B *26:32 0.00010096
*RES
1 *1025:Q *26:12 23.2107 
2 *26:12 *26:20 5 
3 *26:20 *26:32 27.5268 
4 *26:32 *1037:A 32.2196 
5 *26:20 *1045:A 9.3 
6 *26:12 *1034:B 9.3 
*END

*D_NET *27 0.0114248
*CONN
*I *1046:A I *D Xnor
*I *1035:B I *D Nand_gate
*I *1038:A I *D sky130_fd_sc_hd__clkbuf_4
*I *1026:Q O *D D_FF_pe
*CAP
1 *1046:A 0.000207938
2 *1035:B 0
3 *1038:A 0.00197711
4 *1026:Q 0.000691007
5 *27:25 0.00031129
6 *27:16 0.00427305
7 *27:12 0.0030903
8 *1046:A *1042:A 5.33433e-05
9 *1022:A *1046:A 0
10 *1022:A *27:16 0
11 *1025:CLK *27:16 0.00020112
12 *1025:CLK *27:25 0.000123295
13 *1025:D *1046:A 0
14 *1025:D *27:25 0
15 *1026:CLK *27:16 4.35048e-05
16 *1030:A *1046:A 0.000129868
17 *14:10 *27:16 0.000136301
18 *26:32 *1046:A 0.000186669
*RES
1 *1026:Q *27:12 22.4786 
2 *27:12 *27:16 49.25 
3 *27:16 *1038:A 41.8714 
4 *27:12 *27:25 1.94643 
5 *27:25 *1035:B 13.8 
6 *27:25 *1046:A 18.55 
*END

*D_NET *28 0.0110974
*CONN
*I *1039:A I *D sky130_fd_sc_hd__clkbuf_4
*I *1047:A I *D Xnor
*I *1027:Q O *D D_FF_pe
*CAP
1 *1039:A 0
2 *1047:A 0.000483662
3 *1027:Q 5.40981e-05
4 *28:33 0.00198528
5 *28:29 0.00495841
6 *28:8 0.0035109
7 *1047:A *1043:A 7.13131e-05
8 *26:20 *1047:A 3.37729e-05
*RES
1 *1027:Q *28:8 14.8357 
2 *28:8 *1047:A 20.4964 
3 *28:8 *28:29 43.8393 
4 *28:29 *28:33 41.3571 
5 *28:33 *1039:A 9.3 
*END

*D_NET *29 0.00204499
*CONN
*I *1040:A I *D Nor_gate
*I *1044:Y I *D Xnor
*CAP
1 *1040:A 0.000577672
2 *1044:Y 0.000577672
3 *1021:A *1040:A 2.3704e-05
4 *1024:D *1040:A 0.000177941
5 *1028:A *1040:A 5.06733e-05
6 *1033:A *1040:A 0.000397676
7 *1040:B *1040:A 0.000100261
8 *1043:B *1040:A 1.33343e-05
9 *1044:B *1040:A 0.000122625
10 *23:10 *1040:A 3.4323e-06
11 *24:52 *1040:A 0
*RES
1 *1044:Y *1040:A 40.7607 
*END

*D_NET *30 0.00156244
*CONN
*I *1041:A I *D Nor_gate
*I *1045:Y I *D Xnor
*CAP
1 *1041:A 0.000588703
2 *1045:Y 0.000588703
3 *1041:A *1043:A 0.000103039
4 *1022:A *1041:A 0
5 *1029:A *1041:A 0
6 *1042:B *1041:A 0.000116535
7 *26:12 *1041:A 0
8 *26:20 *1041:A 8.61634e-05
9 *26:32 *1041:A 7.92975e-05
*RES
1 *1045:Y *1041:A 38.8143 
*END

*D_NET *31 0.00114512
*CONN
*I *1042:A I *D Nor_gate
*I *1046:Y I *D Xnor
*CAP
1 *1042:A 0.000253613
2 *1046:Y 0.000253613
3 *1022:A *1042:A 0
4 *1025:CLK *1042:A 2.14757e-05
5 *1030:A *1042:A 0.000104974
6 *1035:A *1042:A 0.00031582
7 *1042:B *1042:A 8.99783e-05
8 *1046:A *1042:A 5.33433e-05
9 *26:32 *1042:A 5.23057e-05
*RES
1 *1046:Y *1042:A 34.1536 
*END

*D_NET *32 0.00179499
*CONN
*I *1043:A I *D Nor_gate
*I *1047:Y I *D Xnor
*CAP
1 *1043:A 0.000534195
2 *1047:Y 0.000534195
3 *1028:A *1043:A 5.52302e-05
4 *1041:A *1043:A 0.000103039
5 *1043:B *1043:A 0.000116752
6 *1045:B *1043:A 2.24195e-05
7 *1047:A *1043:A 7.13131e-05
8 *10:6 *1043:A 0.000183713
9 *26:20 *1043:A 0.000118901
10 *26:32 *1043:A 5.52302e-05
*RES
1 *1047:Y *1043:A 30.4125 
*END
